LAMMPS (7 Feb 2024 - Update 1)
OMP_NUM_THREADS environment is not set. Defaulting to 1 thread. (src/comm.cpp:98)
  using 1 OpenMP thread(s) per MPI task
#============Initialization=================
units 			metal
atom_style 		atomic
boundary 		p p p

############################################
#              CLI Variables               #
############################################
variable 		seed index 200093          #
variable 		N index 21                 #
variable 		iter index 100000000        #
variable 		iterther index 10000000     #
variable 		iexport index 1000000      #
variable 		tempchauf index 4000       #
variable 		Tdamp index 0.001          #
variable 		timestep index 0.0001      #
variable 		box_size index 100		   #
############################################
############################################
#=========Simulation box definition=========
lattice 		sc 1.0
Lattice spacing in x,y,z = 1 1 1
region 			bigbox block 0 ${box_size} 0 ${box_size} 0 ${box_size}
region 			bigbox block 0 100 0 ${box_size} 0 ${box_size}
region 			bigbox block 0 100 0 100 0 ${box_size}
region 			bigbox block 0 100 0 100 0 100
create_box 		1 bigbox
Created orthogonal box = (0 0 0) to (100 100 100)
  1 by 1 by 1 MPI processor grid

#==================Atoms====================
region 			safezone block 5 10 5 10 5 10 units box
create_atoms 	1 random ${N} ${seed} safezone
create_atoms 	1 random 21 ${seed} safezone
create_atoms 	1 random 21 200093 safezone
Created 21 atoms
  using lattice units in orthogonal box = (0 0 0) to (100 100 100)
  create_atoms CPU = 0.000 seconds
labelmap 		atom 1 C
mass 			* 12.01



#==========Velocity initialization==========
velocity 		all create 0.0000001 1563967 rot yes dist gaussian

#======Pair style for atom interactions=============
pair_style 		rebo
pair_coeff 		* * CH.rebo C
Reading rebo potential file CH.rebo with DATE: 2018-7-3

#==============Neighbor selection===================
neighbor 		0.3 bin
neigh_modify 	every 1 delay 0 check yes



#==============Custom Wall force====================
#==========Wall with harmonic potential=============
#variable       k equal 10.0

#fix             xlo_wall all wall/harmonic xlo EDGE v_k 1.0 0.7
#fix             xhi_wall all wall/harmonic xhi EDGE v_k 1.0 0.7
#fix             ylo_wall all wall/harmonic ylo EDGE v_k 1.0 0.7
#fix             yhi_wall all wall/harmonic yhi EDGE v_k 1.0 0.7
#fix             zlo_wall all wall/harmonic zlo EDGE v_k 1.0 0.7
#fix             zhi_wall all wall/harmonic zhi EDGE v_k 1.0 0.7



#=====================Timestep======================
timestep 		${timestep}
timestep 		0.0001

#===============Define dump command=================
dump 			1 all cfg 100000 ./dump/dump.tensile_*.cfg mass type xs ys zs vx vy vz id

#========System temperature printing info===========
thermo_style 	custom step temp etotal epair pe ke
thermo 			${iexport}	# 1'000'000
thermo 			1000000	



#====================CRC Cycle======================

#=============Condensation et chauffe===============

# Minimize during the heating phase
#min_style       sd
#minimize        1.0e-5 1.0e-7 500 1000

fix 			1 all nve
fix 			2 all temp/berendsen 0.0 ${tempchauf} ${Tdamp}
fix 			2 all temp/berendsen 0.0 4000 ${Tdamp}
fix 			2 all temp/berendsen 0.0 4000 0.001
fix             3 all momentum 1 linear 1 1 1 angular rescale

run 			${iter}
run 			100000000
Neighbor list info ...
  update: every = 1 steps, delay = 0 steps, check = yes
  max neighbors/atom: 2000, page size: 100000
  master list distance cutoff = 6.3
  ghost atom cutoff = 6.3
  binsize = 3.15, bins = 32 32 32
  1 neighbor lists, perpetual/occasional/extra = 1 0 0
  (1) pair rebo, perpetual
      attributes: full, newton on, ghost
      pair build: full/bin/ghost
      stencil: full/ghost/bin/3d
      bin: standard
Per MPI rank memory allocation (min/avg/max) = 4.069 | 4.069 | 4.069 Mbytes
   Step          Temp          TotEng         E_pair         PotEng         KinEng    
         0   1e-07          4962.3374      4962.3374      4962.3374      2.5852029e-10
   1000000   40.222253     -98.179168     -98.283151     -98.283151      0.10398268   
   2000000   80.224702     -98.133882     -98.34128      -98.34128       0.20739713   
   3000000   119.97487     -98.035897     -98.346057     -98.346057      0.31015937   
   4000000   160.0651      -97.942244     -98.356045     -98.356045      0.41380075   
   5000000   200.07344     -97.833202     -98.350432     -98.350432      0.51723045   
   6000000   239.89385     -97.735431     -98.355605     -98.355605      0.62017428   
   7000000   280.16076     -103.58155     -104.30582     -104.30582      0.7242724    
   8000000   320.05025     -103.53659     -104.36398     -104.36398      0.82739484   
   9000000   360.00971     -103.43865     -104.36935     -104.36935      0.93069815   
  10000000   400.01704     -103.33633     -104.37045     -104.37045      1.0341252    
  11000000   450.66842     -117.56877     -118.73384     -118.73384      1.1650693    
  12000000   483.39714     -117.69109     -118.94077     -118.94077      1.2496797    
  13000000   509.52898     -117.35177     -118.66901     -118.66901      1.3172358    
  14000000   547.83607     -117.62458     -119.04084     -119.04084      1.4162674    
  15000000   579.94037     -117.55391     -119.05317     -119.05317      1.4992635    
  16000000   640.95349     -116.98874     -118.64574     -118.64574      1.6569948    
  17000000   669.85933     -117.59433     -119.32605     -119.32605      1.7317223    
  18000000   698.68025     -116.78105     -118.58728     -118.58728      1.8062302    
  19000000   735.61799     -116.28969     -118.19142     -118.19142      1.9017218    
  20000000   785.64499     -117.52092     -119.55197     -119.55197      2.0310517    
  21000000   804.09569     -115.82771     -117.90647     -117.90647      2.0787505    
  22000000   871.34837     -116.86142     -119.11404     -119.11404      2.2526123    
  23000000   926.77921     -115.9731      -118.36901     -118.36901      2.3959123    
  24000000   980.37159     -117.91259     -120.44705     -120.44705      2.5344595    
  25000000   978.84568     -117.19664     -119.72715     -119.72715      2.5305147    
  26000000   1026.9051     -116.46158     -119.11634     -119.11634      2.6547579    
  27000000   1037.1905     -120.88341     -123.56476     -123.56476      2.6813479    
  28000000   1130.8185     -120.97038     -123.89378     -123.89378      2.9233953    
  29000000   1173.2525     -121.65345     -124.68654     -124.68654      3.0330957    
  30000000   1194.2567     -121.13125     -124.21865     -124.21865      3.087396     
  31000000   1228.8666     -120.18542     -123.36229     -123.36229      3.1768694    
  32000000   1279.6994     -120.50037     -123.80865     -123.80865      3.3082827    
  33000000   1322.1106     -119.89771     -123.31563     -123.31563      3.417924     
  34000000   1366.3718     -120.50818     -124.04053     -124.04053      3.5323484    
  35000000   1403.3106     -119.75553     -123.38337     -123.38337      3.6278427    
  36000000   1398.1478     -119.58236     -123.19685     -123.19685      3.6144959    
  37000000   1447.152      -117.7594      -121.50058     -121.50058      3.7411815    
  38000000   1513.6478     -118.83304     -122.74613     -122.74613      3.9130867    
  39000000   1580.0871     -118.61516     -122.7         -122.7          4.0848457    
  40000000   1566.9735     -119.48022     -123.53117     -123.53117      4.0509445    
  41000000   1624.7575     -119.46929     -123.66962     -123.66962      4.2003278    
  42000000   1638.8124     -116.59351     -120.83017     -120.83017      4.2366626    
  43000000   1692.9474     -116.5738      -120.95042     -120.95042      4.3766124    
  44000000   1806.6296     -116.90244     -121.57294     -121.57294      4.6705042    
  45000000   1880.957      -117.14617     -122.00882     -122.00882      4.8626554    
  46000000   1884.556      -117.1887      -122.06066     -122.06066      4.8719596    
  47000000   1887.6186     -116.9412      -121.82108     -121.82108      4.8798771    
  48000000   1918.1423     -117.16675     -122.12554     -122.12554      4.958787     
  49000000   2030.46       -115.24428     -120.49343     -120.49343      5.2491511    
  50000000   2032.2138     -116.35758     -121.61127     -121.61127      5.2536849    
  51000000   2102.4603     -116.47897     -121.91426     -121.91426      5.4352864    
  52000000   2072.003      -116.66027     -122.01682     -122.01682      5.3565481    
  53000000   2197.0844     -113.75714     -119.43705     -119.43705      5.679909     
  54000000   2270.5088     -111.76184     -117.63156     -117.63156      5.8697259    
  55000000   2172.9546     -115.19765     -120.81518     -120.81518      5.6175285    
  56000000   2217.2728     -116.89878     -122.63088     -122.63088      5.7321       
  57000000   2345.9711     -116.10549     -122.1703      -122.1703       6.0648113    
  58000000   2363.8656     -117.27615     -123.38722     -123.38722      6.1110721    
  59000000   2365.1765     -117.08821     -123.20267     -123.20267      6.1144611    
  60000000   2438.2016     -114.90116     -121.20441     -121.20441      6.3032458    
  61000000   2499.6354     -113.55579     -120.01786     -120.01786      6.4620648    
  62000000   2457.6348     -115.73363     -122.08712     -122.08712      6.3534847    
  63000000   2639.4039     -109.77216     -116.59556     -116.59556      6.8233947    
  64000000   2694.11       -114.01001     -120.97484     -120.97484      6.9648209    
  65000000   2420.3581     -113.84234     -120.09946     -120.09946      6.2571167    
  66000000   2592.0957     -112.62889     -119.32999     -119.32999      6.7010933    
  67000000   2602.6206     -109.31124     -116.03955     -116.03955      6.7283023    
  68000000   2717.8291     -111.04718     -118.07332     -118.07332      7.0261398    
  69000000   2911.3311     -109.29264     -116.81902     -116.81902      7.5263815    
  70000000   2809.3219     -111.39694     -118.65961     -118.65961      7.262667     
  71000000   2750.3831     -112.18118     -119.29148     -119.29148      7.1102984    
  72000000   2815.7064     -110.98749     -118.26667     -118.26667      7.2791723    
  73000000   2869.9593     -115.91117     -123.3306      -123.3306       7.4194272    
  74000000   2933.41       -111.52269     -119.10615     -119.10615      7.58346      
  75000000   3098.9223     -112.20216     -120.2135      -120.2135       8.0113429    
  76000000   2939.0316     -113.40838     -121.00637     -121.00637      7.5979931    
  77000000   3136.3732     -111.3015      -119.40966     -119.40966      8.108161     
  78000000   3155.6621     -112.06378     -120.2218      -120.2218       8.1580267    
  79000000   3099.0694     -110.96698     -118.9787      -118.9787       8.0117231    
  80000000   3170.1611     -108.80766     -117.00317     -117.00317      8.1955096    
  81000000   3219.1657     -107.12821     -115.4504      -115.4504       8.3221966    
  82000000   3281.3609     -108.6886      -117.17158     -117.17158      8.4829837    
  83000000   3320.3611     -110.36931     -118.95312     -118.95312      8.5838071    
  84000000   3360.1958     -110.24965     -118.93644     -118.93644      8.6867879    
  85000000   3400.035      -110.11767     -118.90745     -118.90745      8.7897802    
  86000000   3440.0997     -109.99259     -118.88595     -118.88595      8.8933557    
  87000000   3479.8898     -109.86019     -118.85641     -118.85641      8.9962212    
  88000000   3520.0299     -109.72695     -118.82694     -118.82694      9.0999914    
  89000000   3559.9136     -109.59488     -118.79798     -118.79798      9.2030988    
  90000000   3599.9468     -109.46117     -118.76776     -118.76776      9.306593     
  91000000   3640.0669     -109.32457     -118.73488     -118.73488      9.4103115    
  92000000   3680.0546     -109.18712     -118.70081     -118.70081      9.5136878    
  93000000   3720.0196     -109.04784     -118.66484     -118.66484      9.6170055    
  94000000   3760.0313     -108.90814     -118.62858     -118.62858      9.7204438    
  95000000   3799.9632     -108.7649      -118.58857     -118.58857      9.823676     
  96000000   3840.0375     -108.61864     -118.54591     -118.54591      9.9272762    
  97000000   3880.0369     -108.47025     -118.50093     -118.50093      10.030683    
  98000000   3920.0089     -108.31736     -118.45138     -118.45138      10.134018    
  99000000   3960.0138     -108.1609      -118.39834     -118.39834      10.237439    
 100000000   3999.9922     -107.99702     -118.33781     -118.33781      10.340792    
Loop time of 1614.47 on 1 procs for 100000000 steps with 21 atoms

Performance: 535.161 ns/day, 0.045 hours/ns, 61939.889 timesteps/s, 1.301 Matom-step/s
103.0% CPU use with 1 MPI tasks x 1 OpenMP threads

MPI task timing breakdown:
Section |  min time  |  avg time  |  max time  |%varavg| %total
---------------------------------------------------------------
Pair    | 1338.1     | 1338.1     | 1338.1     |   0.0 | 82.88
Neigh   | 93.183     | 93.183     | 93.183     |   0.0 |  5.77
Comm    | 17.281     | 17.281     | 17.281     |   0.0 |  1.07
Output  | 5.4547     | 5.4547     | 5.4547     |   0.0 |  0.34
Modify  | 139.02     | 139.02     | 139.02     |   0.0 |  8.61
Other   |            | 21.41      |            |       |  1.33

Nlocal:             21 ave          21 max          21 min
Histogram: 1 0 0 0 0 0 0 0 0 0
Nghost:              0 ave           0 max           0 min
Histogram: 1 0 0 0 0 0 0 0 0 0
Neighs:              0 ave           0 max           0 min
Histogram: 1 0 0 0 0 0 0 0 0 0
FullNghs:          284 ave         284 max         284 min
Histogram: 1 0 0 0 0 0 0 0 0 0

Total # of neighbors = 284
Ave neighs/atom = 13.52381
Neighbor list builds = 2655691
Dangerous builds = 0
write_restart 	./endconf/endconf*1.restart
System init for write_restart ...

#==============Constant Temp Phase==================

# Minimize during the constant temperature phase
min_style       sd
minimize        1.0e-5 1.0e-7 500 1000
Per MPI rank memory allocation (min/avg/max) = 6.446 | 6.446 | 6.446 Mbytes
   Step          Temp          TotEng         E_pair         PotEng         KinEng    
 100000000   3999.9922     -107.99702     -118.33781     -118.33781      10.340792    
 100000006   3999.9922     -109.34468     -119.68547     -119.68547      10.340792    
Loop time of 0.00494543 on 1 procs for 6 steps with 21 atoms

20.6% CPU use with 1 MPI tasks x 1 OpenMP threads

Minimization stats:
  Stopping criterion = energy tolerance
  Energy initial, next-to-last, final = 
     -118.337811591202   -119.68503168605  -119.685466591301
  Force two-norm initial, final = 6.2959102 0.19424619
  Force max component initial, final = 3.4967369 0.095434257
  Final line search alpha, max atom move = 0.65530953 0.062538978
  Iterations, force evaluations = 6 11

MPI task timing breakdown:
Section |  min time  |  avg time  |  max time  |%varavg| %total
---------------------------------------------------------------
Pair    | 0.00015988 | 0.00015988 | 0.00015988 |   0.0 |  3.23
Neigh   | 7.0453e-05 | 7.0453e-05 | 7.0453e-05 |   0.0 |  1.42
Comm    | 6.519e-06  | 6.519e-06  | 6.519e-06  |   0.0 |  0.13
Output  | 0          | 0          | 0          |   0.0 |  0.00
Modify  | 0          | 0          | 0          |   0.0 |  0.00
Other   |            | 0.004709   |            |       | 95.21

Nlocal:             21 ave          21 max          21 min
Histogram: 1 0 0 0 0 0 0 0 0 0
Nghost:              0 ave           0 max           0 min
Histogram: 1 0 0 0 0 0 0 0 0 0
Neighs:              0 ave           0 max           0 min
Histogram: 1 0 0 0 0 0 0 0 0 0
FullNghs:          284 ave         284 max         284 min
Histogram: 1 0 0 0 0 0 0 0 0 0

Total # of neighbors = 284
Ave neighs/atom = 13.52381
Neighbor list builds = 2
Dangerous builds = 0

unfix 			2
fix 			4 all temp/berendsen ${tempchauf} ${tempchauf} ${Tdamp}
fix 			4 all temp/berendsen 4000 ${tempchauf} ${Tdamp}
fix 			4 all temp/berendsen 4000 4000 ${Tdamp}
fix 			4 all temp/berendsen 4000 4000 0.001

run 			${iterther}
run 			10000000
Per MPI rank memory allocation (min/avg/max) = 5.321 | 5.321 | 5.321 Mbytes
   Step          Temp          TotEng         E_pair         PotEng         KinEng    
 100000006   3999.9922     -109.34468     -119.68547     -119.68547      10.340792    
 101000000   3999.9989     -107.9978      -118.3386      -118.3386       10.340809    
 102000000   3999.9991     -107.9978      -118.33861     -118.33861      10.340809    
 103000000   3999.9992     -107.9978      -118.33861     -118.33861      10.34081     
 104000000   3999.9994     -107.99781     -118.33862     -118.33862      10.34081     
 105000000   3999.9996     -107.99781     -118.33862     -118.33862      10.340811    
 106000000   3999.9998     -107.99781     -118.33862     -118.33862      10.340811    
 107000000   4000          -107.99782     -118.33863     -118.33863      10.340812    
 108000000   4000.0002     -107.99782     -118.33863     -118.33863      10.340812    
 109000000   4000.0004     -107.99782     -118.33863     -118.33863      10.340813    
 110000000   4000.0006     -107.99782     -118.33863     -118.33863      10.340813    
 110000006   4000.0005     -107.99782     -118.33863     -118.33863      10.340813    
Loop time of 124.014 on 1 procs for 10000000 steps with 21 atoms

Performance: 696.696 ns/day, 0.034 hours/ns, 80636.117 timesteps/s, 1.693 Matom-step/s
103.7% CPU use with 1 MPI tasks x 1 OpenMP threads

MPI task timing breakdown:
Section |  min time  |  avg time  |  max time  |%varavg| %total
---------------------------------------------------------------
Pair    | 84.428     | 84.428     | 84.428     |   0.0 | 68.08
Neigh   | 19.975     | 19.975     | 19.975     |   0.0 | 16.11
Comm    | 1.7514     | 1.7514     | 1.7514     |   0.0 |  1.41
Output  | 0.56388    | 0.56388    | 0.56388    |   0.0 |  0.45
Modify  | 14.873     | 14.873     | 14.873     |   0.0 | 11.99
Other   |            | 2.423      |            |       |  1.95

Nlocal:             21 ave          21 max          21 min
Histogram: 1 0 0 0 0 0 0 0 0 0
Nghost:              0 ave           0 max           0 min
Histogram: 1 0 0 0 0 0 0 0 0 0
Neighs:              0 ave           0 max           0 min
Histogram: 1 0 0 0 0 0 0 0 0 0
FullNghs:          284 ave         284 max         284 min
Histogram: 1 0 0 0 0 0 0 0 0 0

Total # of neighbors = 284
Ave neighs/atom = 13.52381
Neighbor list builds = 555555
Dangerous builds = 0
write_restart 	./endconf/endconf*2.restart
System init for write_restart ...

#=================Cooling Phase=====================

# Re-minimize before cooling
#min_style       sd
#minimize        1.0e-5 1.0e-7 500 1000

unfix 			4
fix 			5 all temp/berendsen ${tempchauf} 0.0 ${Tdamp}
fix 			5 all temp/berendsen 4000 0.0 ${Tdamp}
fix 			5 all temp/berendsen 4000 0.0 0.001

run 			${iter}
run 			100000000
Per MPI rank memory allocation (min/avg/max) = 5.321 | 5.321 | 5.321 Mbytes
   Step          Temp          TotEng         E_pair         PotEng         KinEng    
 110000006   4000.0005     -107.99782     -118.33863     -118.33863      10.340813    
 111000000   3960.0022     -108.1612      -118.39861     -118.39861      10.237409    
 112000000   3920.0018     -108.31829     -118.45229     -118.45229      10.134       
 113000000   3880.0031     -108.47072     -118.50131     -118.50131      10.030595    
 114000000   3839.999      -108.61945     -118.54663     -118.54663      9.9271765    
 115000000   3800.0012     -108.76512     -118.5889      -118.5889       9.8237741    
 116000000   3760.0014     -108.90816     -118.62853     -118.62853      9.7203665    
 117000000   3719.998      -109.04912     -118.66607     -118.66607      9.6169496    
 118000000   3679.9992     -109.18808     -118.70162     -118.70162      9.5135447    
 119000000   3640.0036     -109.32541     -118.73555     -118.73555      9.4101479    
 120000000   3600.0035     -109.46119     -118.76793     -118.76793      9.3067395    
 121000000   3560.0016     -109.59565     -118.79897     -118.79897      9.2033264    
 122000000   3519.9983     -109.7288      -118.82871     -118.82871      9.0999098    
 123000000   3480.0013     -109.86082     -118.85733     -118.85733      8.9965096    
 124000000   3439.9988     -109.99177     -118.88486     -118.88486      8.893095     
 125000000   3399.9978     -110.12169     -118.91137     -118.91137      8.7896843    
 126000000   3359.9978     -110.25074     -118.93701     -118.93701      8.686276     
 127000000   3320.0034     -110.37894     -118.96182     -118.96182      8.5828824    
 128000000   3280.0032     -110.50627     -118.98575     -118.98575      8.4794738    
 129000000   3240.0027     -110.63287     -119.00893     -119.00893      8.3760644    
 130000000   3200.0003     -110.75873     -119.03138     -119.03138      8.2726499    
 131000000   3160.0002     -110.88399     -119.05323     -119.05323      8.1692416    
 132000000   3119.9991     -111.00851     -119.07434     -119.07434      8.0658308    
 133000000   3080.0003     -111.13234     -119.09477     -119.09477      7.9624258    
 134000000   3040.0003     -111.25572     -119.11473     -119.11473      7.8590175    
 135000000   3000.0015     -111.37837     -119.13399     -119.13399      7.7556126    
 136000000   2960.0023     -111.50061     -119.15282     -119.15282      7.6522067    
 137000000   2920.0023     -111.62226     -119.17106     -119.17106      7.5487983    
 138000000   2879.9992     -111.74333     -119.18872     -119.18872      7.4453824    
 139000000   2839.9981     -111.864       -119.20597     -119.20597      7.3419712    
 140000000   2799.9986     -111.98415     -119.22271     -119.22271      7.2385645    
 141000000   2760.0007     -112.10384     -119.23901     -119.23901      7.1351617    
 142000000   2720.0018     -112.22311     -119.25487     -119.25487      7.0317565    
 143000000   2679.9997     -112.34194     -119.27029     -119.27029      6.928343     
 144000000   2640.0012     -112.46042     -119.28536     -119.28536      6.8249389    
 145000000   2600.0005     -112.57843     -119.29996     -119.29996      6.7215288    
 146000000   2560          -112.69598     -119.3141      -119.3141       6.6181195    
 147000000   2519.9985     -112.81325     -119.32796     -119.32796      6.5147075    
 148000000   2480          -112.93013     -119.34143     -119.34143      6.4113033    
 149000000   2440.0016     -113.04662     -119.35452     -119.35452      6.3078992    
 150000000   2400.0029     -113.16273     -119.36723     -119.36723      6.2044944    
 151000000   2359.9985     -113.27853     -119.3796      -119.3796       6.101075     
 152000000   2320.0012     -113.39397     -119.39164     -119.39164      5.9976739    
 153000000   2279.9988     -113.50911     -119.40337     -119.40337      5.8942594    
 154000000   2240.0014     -113.62391     -119.41477     -119.41477      5.7908581    
 155000000   2199.9994     -113.73846     -119.42591     -119.42591      5.6874448    
 156000000   2160.0023     -113.85265     -119.43669     -119.43669      5.5840442    
 157000000   2120.0026     -113.96652     -119.44715     -119.44715      5.4806368    
 158000000   2080.001      -114.0801      -119.45732     -119.45732      5.3772246    
 159000000   2039.9987     -114.19344     -119.46725     -119.46725      5.2738105    
 160000000   2000.0025     -114.30646     -119.47687     -119.47687      5.1704122    
 161000000   1960.0023     -114.41923     -119.48624     -119.48624      5.0670037    
 162000000   1920.0006     -114.53168     -119.49527     -119.49527      4.963591     
 163000000   1880.0017     -114.6439      -119.50409     -119.50409      4.8601859    
 164000000   1840.0001     -114.75591     -119.51268     -119.51268      4.7567736    
 165000000   1800.0024     -114.86758     -119.52095     -119.52095      4.6533713    
 166000000   1760.0007     -114.97902     -119.52898     -119.52898      4.5499588    
 167000000   1719.999      -115.09024     -119.53679     -119.53679      4.4465465    
 168000000   1680.0004     -115.20124     -119.54438     -119.54438      4.343142     
 169000000   1640.001      -115.31192     -119.55166     -119.55166      4.2397353    
 170000000   1600.0022     -115.42244     -119.55877     -119.55877      4.1363304    
 171000000   1560.0012     -115.53268     -119.5656      -119.5656       4.0329196    
 172000000   1520.0018     -115.64276     -119.57227     -119.57227      3.9295131    
 173000000   1480.001      -115.75254     -119.57865     -119.57865      3.8261029    
 174000000   1440.0007     -115.86214     -119.58484     -119.58484      3.7226939    
 175000000   1400.0018     -115.97154     -119.59083     -119.59083      3.6192886    
 176000000   1360.0017     -116.08074     -119.59662     -119.59662      3.5158803    
 177000000   1320.0003     -116.18971     -119.60218     -119.60218      3.4124685    
 178000000   1280          -116.29847     -119.60753     -119.60753      3.3090596    
 179000000   1240.0015     -116.40703     -119.61268     -119.61268      3.2056555    
 180000000   1199.9995     -116.51537     -119.61761     -119.61761      3.1022423    
 181000000   1159.9996     -116.62353     -119.62237     -119.62237      2.9988342    
 182000000   1120.0018     -116.73152     -119.62695     -119.62695      2.8954319    
 183000000   1080.001      -116.83928     -119.6313      -119.6313       2.7920218    
 184000000   1040.0011     -116.94687     -119.63549     -119.63549      2.6886138    
 185000000   1000.0017     -117.05429     -119.6395      -119.6395       2.5852072    
 186000000   960.00147     -117.16153     -119.64333     -119.64333      2.4817986    
 187000000   920.00116     -117.26858     -119.64697     -119.64697      2.3783897    
 188000000   880.0016      -117.37544     -119.65043     -119.65043      2.2749827    
 189000000   839.99977     -117.48213     -119.6537      -119.6537       2.1715698    
 190000000   800.00046     -117.58864     -119.65681     -119.65681      2.0681635    
 191000000   760.00012     -117.69502     -119.65977     -119.65977      1.9647545    
 192000000   720.00021     -117.8012      -119.66255     -119.66255      1.8613466    
 193000000   679.99986     -117.9072      -119.66514     -119.66514      1.7579376    
 194000000   640.00136     -118.01306     -119.66759     -119.66759      1.6545334    
 195000000   600.00008     -118.11876     -119.66988     -119.66988      1.551122     
 196000000   560.00043     -118.22427     -119.67198     -119.67198      1.4477147    
 197000000   520.00102     -118.32964     -119.67395     -119.67395      1.3443082    
 198000000   480.00037     -118.43486     -119.67576     -119.67576      1.2408984    
 199000000   440.00108     -118.53993     -119.67743     -119.67743      1.1374921    
 200000000   400.00117     -118.64484     -119.67892     -119.67892      1.0340842    
 201000000   360.00077     -118.7496      -119.68028     -119.68028      0.93067504   
 202000000   320.0003      -118.8542      -119.68146     -119.68146      0.8272657    
 203000000   280.00076     -118.95867     -119.68253     -119.68253      0.72385878   
 204000000   240.00055     -119.06298     -119.68343     -119.68343      0.62045013   
 205000000   200.00084     -119.16716     -119.6842      -119.6842       0.51704275   
 206000000   160.00055     -119.27119     -119.68482     -119.68482      0.41363388   
 207000000   120.00085     -119.37508     -119.6853      -119.6853       0.31022654   
 208000000   80.000544     -119.47883     -119.68565     -119.68565      0.20681764   
 209000000   40.000712     -119.58244     -119.68585     -119.68585      0.10340996   
 210000000   0.00060023836 -119.68592     -119.68592     -119.68592      1.551738e-06 
 210000006   0.00036027987 -119.68592     -119.68592     -119.68592      9.3139657e-07
Loop time of 1077.54 on 1 procs for 100000000 steps with 21 atoms

Performance: 801.825 ns/day, 0.030 hours/ns, 92803.786 timesteps/s, 1.949 Matom-step/s
104.0% CPU use with 1 MPI tasks x 1 OpenMP threads

MPI task timing breakdown:
Section |  min time  |  avg time  |  max time  |%varavg| %total
---------------------------------------------------------------
Pair    | 775.28     | 775.28     | 775.28     |   0.0 | 71.95
Neigh   | 124.28     | 124.28     | 124.28     |   0.0 | 11.53
Comm    | 14.729     | 14.729     | 14.729     |   0.0 |  1.37
Output  | 5.3879     | 5.3879     | 5.3879     |   0.0 |  0.50
Modify  | 136.78     | 136.78     | 136.78     |   0.0 | 12.69
Other   |            | 21.09      |            |       |  1.96

Nlocal:             21 ave          21 max          21 min
Histogram: 1 0 0 0 0 0 0 0 0 0
Nghost:              6 ave           6 max           6 min
Histogram: 1 0 0 0 0 0 0 0 0 0
Neighs:              0 ave           0 max           0 min
Histogram: 1 0 0 0 0 0 0 0 0 0
FullNghs:          284 ave         284 max         284 min
Histogram: 1 0 0 0 0 0 0 0 0 0

Total # of neighbors = 284
Ave neighs/atom = 13.52381
Neighbor list builds = 3764222
Dangerous builds = 0
write_restart 	./endconf/endconf*3.restart
System init for write_restart ...

Total wall time: 0:46:56
