LAMMPS (7 Feb 2024 - Update 1)
OMP_NUM_THREADS environment is not set. Defaulting to 1 thread. (src/comm.cpp:98)
  using 1 OpenMP thread(s) per MPI task
#============Initialization=================
units 			metal
atom_style 		atomic
boundary 		p p p

############################################
#              CLI Variables               #
############################################
variable 		seed index 200093          #
variable 		N index 18                 #
variable 		iter index 1000000         #
variable 		iterther index 100000      #
variable 		iexport index 1000         #
variable 		tempchauf index 3000       #
variable 		Tdamp index 0.001          #
variable 		timestep index 0.0001      #
variable 		box_size index 20		   #
############################################
############################################

#=========Simulation box definition=========
lattice 		sc 1.0
Lattice spacing in x,y,z = 1 1 1
region 			bigbox block 0 ${box_size} 0 ${box_size} 0 ${box_size}
region 			bigbox block 0 20 0 ${box_size} 0 ${box_size}
region 			bigbox block 0 20 0 20 0 ${box_size}
region 			bigbox block 0 20 0 20 0 20
create_box 		1 bigbox
Created orthogonal box = (0 0 0) to (20 20 20)
  1 by 1 by 1 MPI processor grid

#==================Atoms====================
region 			safezone block 6 9 6 9 6 9 units box
create_atoms 	1 random ${N} ${seed} safezone
create_atoms 	1 random 18 ${seed} safezone
create_atoms 	1 random 18 200093 safezone
Created 18 atoms
  using lattice units in orthogonal box = (0 0 0) to (20 20 20)
  create_atoms CPU = 0.001 seconds
mass 			* 12.01


#==========Velocity initialization==========
velocity 		all create 0.0000001 1563967 rot yes dist gaussian

#======Pair style for atom interactions=============
pair_style 		airebo 1.8
pair_coeff 		* * CH.airebo C
Reading airebo potential file CH.airebo with DATE: 2011-10-25

#==============Neighbor selection===================
neighbor 		0.3 bin
neigh_modify 	every 1 delay 0 check yes


#=====================Timestep======================
timestep 		${timestep}
timestep 		0.0001

#===============Define dump command=================
dump 			1 all cfg 100000 ./dump/dump.tensile_*.cfg mass type xs ys zs vx vy vz id

#========System temperature printing info===========
thermo_style 	custom step temp etotal epair pe ke
thermo 			${iexport}	# 1'000'000
thermo 			1000	


#====================CRC Cycle======================

#=============Condensation et chauffe===============
fix 			1 all nve
fix 			2 all temp/berendsen 0.0 ${tempchauf} ${Tdamp}
fix 			2 all temp/berendsen 0.0 3000 ${Tdamp}
fix 			2 all temp/berendsen 0.0 3000 0.001
fix             3 all momentum 1 linear 1 1 1 angular rescale

run 			${iter}
run 			1000000
Neighbor list info ...
  update: every = 1 steps, delay = 0 steps, check = yes
  max neighbors/atom: 2000, page size: 100000
  master list distance cutoff = 8.116371
  ghost atom cutoff = 8.116371
  binsize = 4.0581855, bins = 5 5 5
  1 neighbor lists, perpetual/occasional/extra = 1 0 0
  (1) pair airebo, perpetual
      attributes: full, newton on, ghost
      pair build: full/bin/ghost
      stencil: full/ghost/bin/3d
      bin: standard
Per MPI rank memory allocation (min/avg/max) = 3.88 | 3.88 | 3.88 Mbytes
   Step          Temp          TotEng         E_pair         PotEng         KinEng    
         0   1e-07          19307.254      19307.254      19307.254      2.1974225e-10
      1000   11.681927     -50.545808     -50.571478     -50.571478      0.02567013   
      2000   10.248639     -57.12886      -57.15138      -57.15138       0.02252059   
      3000   10.091219     -57.77592      -57.798095     -57.798095      0.02217467   
      4000   12.983047     -58.028643     -58.057172     -58.057172      0.028529239  
      5000   15.935187     -58.266007     -58.301023     -58.301023      0.035016337  
      6000   18.959912     -58.495463     -58.537126     -58.537126      0.041662936  
      7000   22.005169     -58.733351     -58.781705     -58.781705      0.048354653  
      8000   25.057925     -58.983855     -59.038918     -59.038918      0.055062848  
      9000   28.036927     -59.238708     -59.300317     -59.300317      0.061608974  
     10000   31.033048     -59.489344     -59.557536     -59.557536      0.068192718  
     11000   34.050312     -59.738122     -59.812945     -59.812945      0.074822921  
     12000   36.958753     -59.976135     -60.057349     -60.057349      0.081213993  
     13000   39.476164     -60.136939     -60.223685     -60.223685      0.086745809  
     14000   41.478337     -60.1416       -60.232745     -60.232745      0.091145429  
     15000   44.133944     -60.007935     -60.104916     -60.104916      0.096980919  
     16000   49.483615     -66.241291     -66.350028     -66.350028      0.10873641   
     17000   52.644095     -66.338866     -66.454547     -66.454547      0.11568132   
     18000   52.731127     -66.263661     -66.379534     -66.379534      0.11587256   
     19000   69.994868     -72.395991     -72.5498       -72.5498        0.1538083    
     20000   59.057831     -72.473814     -72.603589     -72.603589      0.12977501   
     21000   63.08968      -72.464757     -72.603391     -72.603391      0.13863468   
     22000   62.730129     -79.156977     -79.294822     -79.294822      0.1378446    
     23000   70.78188      -79.173016     -79.328554     -79.328554      0.15553769   
     24000   75.346235     -79.031192     -79.196759     -79.196759      0.16556751   
     25000   78.406871     -79.01786      -79.190153     -79.190153      0.17229302   
     26000   80.484896     -79.141687     -79.318546     -79.318546      0.17685932   
     27000   80.759057     -79.084218     -79.26168      -79.26168       0.17746177   
     28000   86.364858     -79.0239       -79.213681     -79.213681      0.18978008   
     29000   86.930251     -79.086946     -79.277969     -79.277969      0.19102249   
     30000   88.136137     -79.068474     -79.262146     -79.262146      0.19367233   
     31000   99.052585     -78.965235     -79.182896     -79.182896      0.21766038   
     32000   94.615191     -78.995073     -79.202983     -79.202983      0.20790955   
     33000   100.39776     -79.029992     -79.250608     -79.250608      0.2206163    
     34000   104.26957     -78.966657     -79.195781     -79.195781      0.22912431   
     35000   106.2821      -78.942446     -79.175993     -79.175993      0.23354667   
     36000   107.74896     -79.028624     -79.265394     -79.265394      0.23676998   
     37000   109.54632     -78.989564     -79.230283     -79.230283      0.24071954   
     38000   106.70828     -78.91449      -79.148974     -79.148974      0.23448318   
     39000   115.0424      -78.893325     -79.146122     -79.146122      0.25279674   
     40000   123.61641     -78.962558     -79.234196     -79.234196      0.27163747   
     41000   124.0786      -78.957343     -79.229996     -79.229996      0.27265311   
     42000   128.36883     -78.854873     -79.136954     -79.136954      0.28208055   
     43000   127.60625     -78.858391     -79.138796     -79.138796      0.28040484   
     44000   128.40948     -78.942838     -79.225007     -79.225007      0.28216988   
     45000   134.18457     -78.856719     -79.151579     -79.151579      0.29486018   
     46000   137.13081     -78.811275     -79.11261      -79.11261       0.30133431   
     47000   141.57624     -78.84337      -79.154473     -79.154473      0.31110282   
     48000   144.1438      -78.833552     -79.150297     -79.150297      0.31674483   
     49000   147.9679      -78.779968     -79.105116     -79.105116      0.32514798   
     50000   147.55921     -78.805287     -79.129536     -79.129536      0.32424993   
     51000   151.07809     -78.826858     -79.158841     -79.158841      0.33198239   
     52000   156.76068     -78.810905     -79.155375     -79.155375      0.34446945   
     53000   159.33618     -78.850587     -79.200716     -79.200716      0.35012891   
     54000   156.25421     -78.812233     -79.15559      -79.15559       0.34335652   
     55000   163.27444     -78.728214     -79.086997     -79.086997      0.35878293   
     56000   173.37647     -78.813992     -79.194973     -79.194973      0.38098135   
     57000   169.15783     -78.79944      -79.171152     -79.171152      0.3717112    
     58000   170.04133     -78.738242     -79.111895     -79.111895      0.37365264   
     59000   180.29775     -78.821164     -79.217354     -79.217354      0.39619032   
     60000   182.82966     -78.789392     -79.191146     -79.191146      0.40175401   
     61000   184.4245      -78.74031      -79.145569     -79.145569      0.40525853   
     62000   189.89174     -78.767864     -79.185136     -79.185136      0.41727238   
     63000   191.34752     -78.810121     -79.230593     -79.230593      0.42047134   
     64000   195.94058     -78.80162      -79.232185     -79.232185      0.43056424   
     65000   197.01503     -78.692718     -79.125644     -79.125644      0.43292526   
     66000   197.419       -78.781656     -79.215469     -79.215469      0.43381295   
     67000   196.66642     -78.799475     -79.231634     -79.231634      0.4321592    
     68000   203.88211     -78.736057     -79.184072     -79.184072      0.44801513   
     69000   206.07256     -78.700185     -79.153014     -79.153014      0.45282847   
     70000   210.55853     -78.8133       -79.275986     -79.275986      0.46268605   
     71000   212.55158     -78.755216     -79.222282     -79.222282      0.46706562   
     72000   214.58781     -78.663739     -79.135279     -79.135279      0.47154007   
     73000   220.02699     -78.694099     -79.177591     -79.177591      0.48349225   
     74000   221.6103      -78.767021     -79.253992     -79.253992      0.48697145   
     75000   224.77947     -78.68864      -79.182575     -79.182575      0.49393545   
     76000   227.74898     -78.614685     -79.115146     -79.115146      0.50046072   
     77000   233.27584     -78.662756     -79.175361     -79.175361      0.51260557   
     78000   233.76368     -78.686383     -79.200061     -79.200061      0.51367757   
     79000   232.24858     -78.653744     -79.164092     -79.164092      0.51034824   
     80000   241.81021     -78.656725     -79.188084     -79.188084      0.53135919   
     81000   244.15574     -78.693937     -79.23045      -79.23045       0.53651331   
     82000   248.13607     -78.671362     -79.216621     -79.216621      0.54525977   
     83000   247.49819     -78.623193     -79.167051     -79.167051      0.54385809   
     84000   252.78415     -78.614225     -79.169698     -79.169698      0.55547356   
     85000   254.70066     -78.672674     -79.232359     -79.232359      0.55968495   
     86000   256.61276     -78.626494     -79.19038      -79.19038       0.56388665   
     87000   258.50608     -78.624476     -79.192523     -79.192523      0.56804707   
     88000   267.26015     -78.614515     -79.201798     -79.201798      0.58728345   
     89000   267.78479     -78.607858     -79.196295     -79.196295      0.58843632   
     90000   270.63929     -78.573182     -79.167891     -79.167891      0.59470885   
     91000   271.53294     -78.583772     -79.180445     -79.180445      0.59667259   
     92000   274.02753     -78.64787      -79.250024     -79.250024      0.60215425   
     93000   279.13632     -78.607674     -79.221055     -79.221055      0.61338041   
     94000   284.9034      -78.552566     -79.17862      -79.17862       0.62605313   
     95000   285.81133     -78.602929     -79.230978     -79.230978      0.62804824   
     96000   285.80441     -78.622842     -79.250875     -79.250875      0.62803303   
     97000   290.53914     -78.611098     -79.249535     -79.249535      0.63843724   
     98000   297.55445     -78.51698      -79.170833     -79.170833      0.65385284   
     99000   296.71359     -78.508805     -79.16081      -79.16081       0.65200512   
    100000   296.08391     -78.588037     -79.238658     -79.238658      0.65062144   
    101000   301.86318     -78.541143     -79.204464     -79.204464      0.66332093   
    102000   302.36236     -78.551905     -79.216323     -79.216323      0.66441784   
    103000   312.8496      -78.539637     -79.2271       -79.2271        0.68746273   
    104000   310.76857     -78.535295     -79.218185     -79.218185      0.68288984   
    105000   312.06513     -78.545995     -79.231734     -79.231734      0.68573893   
    106000   320.81304     -78.557047     -79.262009     -79.262009      0.70496178   
    107000   324.27639     -84.095385     -84.807957     -84.807957      0.71257222   
    108000   300.96626     -84.11077      -84.77212      -84.77212       0.66135002   
    109000   331.88425     -83.837993     -84.567283     -84.567283      0.72928991   
    110000   319.94069     -84.066241     -84.769286     -84.769286      0.70304486   
    111000   332.41776     -83.99459      -84.725052     -84.725052      0.73046225   
    112000   342.71264     -83.879985     -84.633069     -84.633069      0.75308444   
    113000   332.5132      -84.107356     -84.838028     -84.838028      0.73067198   
    114000   340.20061     -83.748024     -84.495588     -84.495588      0.74756445   
    115000   336.51403     -83.892958     -84.632421     -84.632421      0.7394635    
    116000   354.2911      -83.917075     -84.695602     -84.695602      0.77852723   
    117000   344.75557     -84.243427     -85.001        -85.001         0.75757364   
    118000   372.92425     -83.774827     -84.594299     -84.594299      0.81947213   
    119000   354.73777     -84.104412     -84.88392      -84.88392       0.77950874   
    120000   347.32938     -83.695619     -84.458848     -84.458848      0.76322938   
    121000   368.15906     -84.137438     -84.946439     -84.946439      0.80900098   
    122000   367.3192      -83.535971     -84.343127     -84.343127      0.80715547   
    123000   372.62522     -84.155479     -84.974294     -84.974294      0.81881502   
    124000   376.21461     -83.578092     -84.404795     -84.404795      0.82670244   
    125000   389.01837     -83.579175     -84.434012     -84.434012      0.8548377    
    126000   388.45407     -83.836425     -84.690023     -84.690023      0.85359769   
    127000   391.11432     -83.649202     -84.508645     -84.508645      0.85944339   
    128000   383.30931     -84.036408     -84.878701     -84.878701      0.84229248   
    129000   405.17546     -83.858053     -84.748394     -84.748394      0.89034166   
    130000   384.53536     -83.813027     -84.658014     -84.658014      0.84498665   
    131000   382.215       -83.8447       -84.684588     -84.684588      0.83988782   
    132000   395.99476     -84.074818     -84.944986     -84.944986      0.87016779   
    133000   382.74102     -83.674623     -84.515667     -84.515667      0.84104372   
    134000   415.12043     -84.168657     -85.080852     -85.080852      0.91219496   
    135000   399.17404     -83.780645     -84.657799     -84.657799      0.877154     
    136000   402.98658     -83.848128     -84.73366      -84.73366       0.88553176   
    137000   391.91948     -83.662717     -84.52393      -84.52393       0.86121268   
    138000   419.51368     -84.120815     -85.042664     -85.042664      0.92184877   
    139000   415.79772     -84.115227     -85.028911     -85.028911      0.91368325   
    140000   409.85565     -83.944778     -84.845404     -84.845404      0.90062601   
    141000   412.85792     -83.909873     -84.817097     -84.817097      0.90722326   
    142000   440.65804     -83.795198     -84.76351      -84.76351       0.96831188   
    143000   424.99656     -84.087757     -85.021654     -85.021654      0.93389698   
    144000   435.06707     -88.932931     -89.888957     -89.888957      0.95602614   
    145000   460.14712     -89.788717     -90.799854     -90.799854      1.0111376    
    146000   428.55995     -89.49687      -90.438597     -90.438597      0.94172727   
    147000   435.75578     -89.635406     -90.592945     -90.592945      0.95753955   
    148000   439.90954     -89.249006     -90.215673     -90.215673      0.9666671    
    149000   439.48918     -89.183019     -90.148762     -90.148762      0.9657434    
    150000   435.67038     -89.849471     -90.806823     -90.806823      0.95735188   
    151000   455.10763     -89.7358       -90.735864     -90.735864      1.0000637    
    152000   464.29233     -89.567651     -90.587897     -90.587897      1.0202464    
    153000   457.62755     -89.353547     -90.359148     -90.359148      1.0056011    
    154000   456.27728     -89.653203     -90.655837     -90.655837      1.0026339    
    155000   470.78995     -89.301168     -90.335692     -90.335692      1.0345244    
    156000   470.0072      -89.715619     -90.748423     -90.748423      1.0328044    
    157000   470.22456     -89.243608     -90.27689      -90.27689       1.033282     
    158000   469.12907     -89.259434     -90.290309     -90.290309      1.0308748    
    159000   487.52433     -89.775351     -90.846648     -90.846648      1.0712969    
    160000   464.07956     -89.644489     -90.664268     -90.664268      1.0197789    
    161000   468.2946      -89.584281     -90.613322     -90.613322      1.0290411    
    162000   496.49753     -89.840872     -90.931887     -90.931887      1.0910148    
    163000   500.62018     -89.817        -90.917074     -90.917074      1.100074     
    164000   472.65429     -89.686505     -90.725126     -90.725126      1.0386212    
    165000   539.0535      -89.568323     -90.752851     -90.752851      1.1845283    
    166000   483.36626     -90.056188     -91.118348     -91.118348      1.0621599    
    167000   481.54099     -89.653431     -90.71158      -90.71158       1.058149     
    168000   523.08993     -89.738361     -90.88781      -90.88781       1.1494496    
    169000   483.06276     -89.774133     -90.835626     -90.835626      1.061493     
    170000   506.8943      -89.611895     -90.725756     -90.725756      1.1138609    
    171000   514.42937     -89.835208     -90.965626     -90.965626      1.1304186    
    172000   513.04242     -89.789186     -90.916556     -90.916556      1.1273709    
    173000   526.57166     -89.640059     -90.797159     -90.797159      1.1571004    
    174000   527.10965     -88.972349     -90.130631     -90.130631      1.1582826    
    175000   527.06876     -89.292952     -90.451144     -90.451144      1.1581927    
    176000   529.1059      -89.177736     -90.340405     -90.340405      1.1626692    
    177000   531.0733      -89.604952     -90.771944     -90.771944      1.1669924    
    178000   541.08996     -89.667231     -90.856234     -90.856234      1.1890032    
    179000   530.37553     -89.644011     -90.80947      -90.80947       1.1654591    
    180000   516.98979     -89.826289     -90.962334     -90.962334      1.136045     
    181000   546.71714     -89.756533     -90.957902     -90.957902      1.2013685    
    182000   537.42154     -89.309355     -90.490297     -90.490297      1.1809422    
    183000   541.92921     -89.50446      -90.695307     -90.695307      1.1908474    
    184000   554.88086     -89.328414     -90.547722     -90.547722      1.2193077    
    185000   549.33743     -89.171423     -90.378549     -90.378549      1.2071264    
    186000   553.78486     -89.307484     -90.524384     -90.524384      1.2168993    
    187000   566.40081     -89.556156     -90.800778     -90.800778      1.2446219    
    188000   560.25189     -89.758418     -90.989528     -90.989528      1.2311101    
    189000   581.86641     -89.562717     -90.841323     -90.841323      1.2786063    
    190000   578.53529     -89.712743     -90.98403      -90.98403       1.2712864    
    191000   570.34389     -89.578188     -90.831475     -90.831475      1.2532865    
    192000   571.61385     -89.053144     -90.309221     -90.309221      1.2560771    
    193000   577.19973     -89.46299      -90.731341     -90.731341      1.2683517    
    194000   583.37952     -89.661649     -90.94358      -90.94358       1.2819313    
    195000   601.57098     -89.67723      -90.999136     -90.999136      1.3219056    
    196000   596.77094     -89.704844     -91.016202     -91.016202      1.3113579    
    197000   582.96467     -89.444175     -90.725195     -90.725195      1.2810197    
    198000   583.51737     -89.269257     -90.551491     -90.551491      1.2822342    
    199000   575.58909     -89.515691     -90.780503     -90.780503      1.2648124    
    200000   596.95312     -89.904556     -91.216314     -91.216314      1.3117582    
    201000   595.3145      -89.752354     -91.060512     -91.060512      1.3081575    
    202000   605.0017      -89.407592     -90.737037     -90.737037      1.3294443    
    203000   610.33103     -89.435098     -90.776253     -90.776253      1.3411551    
    204000   601.37558     -89.497861     -90.819337     -90.819337      1.3214762    
    205000   616.76806     -89.859035     -91.214335     -91.214335      1.3553       
    206000   619.41441     -89.771965     -91.13308      -91.13308       1.3611151    
    207000   619.79818     -89.665213     -91.027171     -91.027171      1.3619584    
    208000   621.04036     -89.57485      -90.939539     -90.939539      1.364688     
    209000   635.61805     -89.690256     -91.086978     -91.086978      1.3967214    
    210000   627.47783     -89.779314     -91.158147     -91.158147      1.3788339    
    211000   624.00905     -89.807312     -91.178524     -91.178524      1.3712115    
    212000   638.78978     -89.453849     -90.85754      -90.85754       1.403691     
    213000   635.80562     -89.30463      -90.701764     -90.701764      1.3971336    
    214000   642.71873     -89.371605     -90.783929     -90.783929      1.4123246    
    215000   646.0841      -89.58386      -91.003579     -91.003579      1.4197197    
    216000   642.6914      -89.68276      -91.095025     -91.095025      1.4122645    
    217000   651.20764     -89.802332     -91.233311     -91.233311      1.4309783    
    218000   656.27331     -89.620085     -91.062195     -91.062195      1.4421097    
    219000   657.57469     -89.379464     -90.824433     -90.824433      1.4449694    
    220000   664.69536     -89.487764     -90.94838      -90.94838       1.4606165    
    221000   657.3614      -89.431264     -90.875765     -90.875765      1.4445007    
    222000   675.11282     -89.590537     -91.074045     -91.074045      1.4835081    
    223000   671.59665     -89.726962     -91.202744     -91.202744      1.4757816    
    224000   668.92349     -89.520742     -90.99065      -90.99065       1.4699075    
    225000   668.7323      -89.571273     -91.04076      -91.04076       1.4694874    
    226000   677.8224      -89.621556     -91.111018     -91.111018      1.4894622    
    227000   680.26864     -89.845227     -91.340065     -91.340065      1.4948376    
    228000   678.16775     -89.470607     -90.960828     -90.960828      1.490221     
    229000   678.96382     -89.514314     -91.006285     -91.006285      1.4919703    
    230000   697.36642     -89.543274     -91.075683     -91.075683      1.5324086    
    231000   687.70235     -89.749182     -91.260354     -91.260354      1.5111726    
    232000   699.18354     -89.58114      -91.117542     -91.117542      1.5364016    
    233000   694.19796     -89.587073     -91.11252      -91.11252       1.5254462    
    234000   706.22383     -89.522147     -91.074019     -91.074019      1.5518721    
    235000   708.14733     -89.634219     -91.190318     -91.190318      1.5560989    
    236000   704.80875     -89.573009     -91.121771     -91.121771      1.5487626    
    237000   702.65418     -89.666516     -91.210544     -91.210544      1.5440281    
    238000   707.16493     -89.502182     -91.056122     -91.056122      1.5539401    
    239000   721.9511      -89.52564      -91.112072     -91.112072      1.5864316    
    240000   710.69443     -89.320323     -90.882019     -90.882019      1.5616959    
    241000   721.31192     -89.511494     -91.096521     -91.096521      1.585027     
    242000   734.36845     -89.506854     -91.120572     -91.120572      1.6137177    
    243000   729.18285     -89.625507     -91.22783      -91.22783       1.6023228    
    244000   721.84698     -89.656526     -91.242729     -91.242729      1.5862028    
    245000   734.57345     -89.606804     -91.220973     -91.220973      1.6141682    
    246000   738.32689     -89.641534     -91.26395      -91.26395       1.6224161    
    247000   747.83797     -89.623442     -91.266758     -91.266758      1.6433159    
    248000   735.76341     -89.656081     -91.272865     -91.272865      1.616783     
    249000   742.78708     -89.3441       -90.976317     -90.976317      1.632217     
    250000   746.36683     -89.411965     -91.052049     -91.052049      1.6400832    
    251000   746.61178     -89.44929      -91.089911     -91.089911      1.6406215    
    252000   756.21193     -89.686704     -91.348421     -91.348421      1.6617171    
    253000   771.19295     -89.558121     -91.252758     -91.252758      1.6946367    
    254000   758.1534      -89.472252     -91.138235     -91.138235      1.6659833    
    255000   768.51867     -89.535984     -91.224744     -91.224744      1.6887602    
    256000   764.06841     -89.648418     -91.327399     -91.327399      1.6789811    
    257000   772.02593     -89.540662     -91.237129     -91.237129      1.6964671    
    258000   784.84827     -89.590538     -91.315181     -91.315181      1.7246432    
    259000   775.29851     -89.398306     -91.101964     -91.101964      1.7036584    
    260000   786.34071     -89.509745     -91.237668     -91.237668      1.7279227    
    261000   784.42811     -89.489777     -91.213497     -91.213497      1.72372      
    262000   783.14077     -89.546688     -91.267579     -91.267579      1.7208911    
    263000   793.20148     -89.599075     -91.342073     -91.342073      1.7429988    
    264000   796.43475     -89.615352     -91.365456     -91.365456      1.7501036    
    265000   789.46177     -89.495855     -91.230636     -91.230636      1.734781     
    266000   796.42332     -89.494888     -91.244967     -91.244967      1.7500785    
    267000   804.06815     -89.639922     -91.4068       -91.4068        1.7668774    
    268000   797.13793     -89.520021     -91.27167      -91.27167       1.7516488    
    269000   808.75269     -89.366548     -91.14372      -91.14372       1.7771713    
    270000   809.38991     -89.371808     -91.15038      -91.15038       1.7785716    
    271000   816.1863      -89.524802     -91.318308     -91.318308      1.7935061    
    272000   818.50464     -89.609474     -91.408075     -91.408075      1.7986005    
    273000   819.41834     -89.514387     -91.314996     -91.314996      1.8006083    
    274000   821.58601     -89.46096      -91.266332     -91.266332      1.8053716    
    275000   818.56712     -89.459824     -91.258562     -91.258562      1.7987378    
    276000   824.95423     -89.559052     -91.371825     -91.371825      1.812773     
    277000   822.66606     -89.52591      -91.333655     -91.333655      1.8077449    
    278000   832.03036     -89.500673     -91.328995     -91.328995      1.8283222    
    279000   833.944       -89.368331     -91.200858     -91.200858      1.8325273    
    280000   840.43166     -89.354677     -91.20146      -91.20146       1.8467834    
    281000   852.7944      -89.506046     -91.379996     -91.379996      1.8739496    
    282000   847.7754      -89.466926     -91.329847     -91.329847      1.8629207    
    283000   852.18828     -89.472312     -91.344929     -91.344929      1.8726177    
    284000   846.49311     -89.479994     -91.340097     -91.340097      1.860103     
    285000   856.42926     -89.466777     -91.348713     -91.348713      1.8819369    
    286000   859.72367     -89.437403     -91.326579     -91.326579      1.8891761    
    287000   863.26268     -89.394197     -91.29115      -91.29115       1.8969528    
    288000   869.24092     -89.283136     -91.193226     -91.193226      1.9100895    
    289000   857.8892      -89.282114     -91.167259     -91.167259      1.885145     
    290000   867.15513     -89.423655     -91.329161     -91.329161      1.9055062    
    291000   874.58605     -89.475623     -91.397458     -91.397458      1.921835     
    292000   876.69401     -89.388876     -91.315343     -91.315343      1.9264671    
    293000   873.97056     -89.331101     -91.251583     -91.251583      1.9204825    
    294000   885.2139      -89.429257     -91.374446     -91.374446      1.9451889    
    295000   882.43508     -89.371895     -91.310978     -91.310978      1.9390827    
    296000   881.82458     -89.363307     -91.301048     -91.301048      1.9377411    
    297000   895.39167     -89.350054     -91.317608     -91.317608      1.9675538    
    298000   901.5119      -89.284293     -91.265295     -91.265295      1.9810025    
    299000   896.19558     -89.273187     -91.242507     -91.242507      1.9693203    
    300000   908.1222      -89.351382     -91.34691      -91.34691       1.9955281    
    301000   906.38588     -89.353033     -91.344746     -91.344746      1.9917127    
    302000   904.94058     -89.279473     -91.268009     -91.268009      1.9885368    
    303000   910.12242     -89.277905     -91.277829     -91.277829      1.9999235    
    304000   911.69356     -89.298856     -91.302232     -91.302232      2.0033759    
    305000   918.0942      -89.327026     -91.344467     -91.344467      2.0174408    
    306000   918.47155     -89.285892     -91.304162     -91.304162      2.01827      
    307000   913.97007     -89.267988     -91.276367     -91.276367      2.0083784    
    308000   928.20626     -89.27321      -91.312871     -91.312871      2.0396613    
    309000   929.86539     -89.354826     -91.398133     -91.398133      2.0433071    
    310000   937.00158     -89.297176     -91.356164     -91.356164      2.0589883    
    311000   932.57808     -89.292929     -91.342197     -91.342197      2.049268     
    312000   933.56236     -89.320414     -91.371845     -91.371845      2.0514309    
    313000   933.75785     -89.310904     -91.362765     -91.362765      2.0518605    
    314000   946.72142     -89.28603      -91.366377     -91.366377      2.0803469    
    315000   952.43118     -89.199727     -91.292621     -91.292621      2.0928937    
    316000   956.19163     -89.223558     -91.324715     -91.324715      2.101157     
    317000   958.40599     -89.271533     -91.377556     -91.377556      2.1060229    
    318000   955.54974     -89.287197     -91.386943     -91.386943      2.0997465    
    319000   998.80713     -94.085162     -96.279963     -96.279963      2.1948012    
    320000   972.09033     -93.75133      -95.887423     -95.887423      2.1360931    
    321000   1011.7767     -93.647421     -95.870722     -95.870722      2.2233008    
    322000   949.57346     -94.235098     -96.321713     -96.321713      2.086614     
    323000   967.1899      -93.838062     -95.963387     -95.963387      2.1253248    
    324000   963.91135     -93.640106     -95.758226     -95.758226      2.1181205    
    325000   963.58279     -94.334518     -96.451916     -96.451916      2.1173985    
    326000   999.65749     -94.149697     -96.346367     -96.346367      2.1966698    
    327000   997.50679     -93.584627     -95.77657      -95.77657       2.1919438    
    328000   985.17445     -94.04507      -96.209914     -96.209914      2.1648445    
    329000   989.1323      -94.696517     -96.870059     -96.870059      2.1735415    
    330000   999.57274     -93.452598     -95.649082     -95.649082      2.1964836    
    331000   995.42367     -94.3458       -96.533166     -96.533166      2.1873663    
    332000   1014.5562     -99.172831     -101.40224     -101.40224      2.2294085    
    333000   977.72849     -97.979074     -100.12756     -100.12756      2.1484825    
    334000   1038.7781     -97.733874     -100.01651     -100.01651      2.2826344    
    335000   995.77355     -97.890685     -100.07882     -100.07882      2.1881352    
    336000   1008.4146     -98.856177     -101.07209     -101.07209      2.215913     
    337000   1039.4055     -98.118395     -100.40241     -100.40241      2.284013     
    338000   1097.9301     -98.182942     -100.59556     -100.59556      2.4126163    
    339000   1076.566      -98.272175     -100.63785     -100.63785      2.3656704    
    340000   991.52207     -98.583993     -100.76279     -100.76279      2.1787929    
    341000   1008.2656     -98.740427     -100.95601     -100.95601      2.2155854    
    342000   947.30729     -97.966715     -100.04835     -100.04835      2.0816343    
    343000   1055.4392     -98.153924     -100.47317     -100.47317      2.3192458    
    344000   1033.5613     -98.492984     -100.76415     -100.76415      2.2711708    
    345000   1063.7149     -98.121959     -100.45939     -100.45939      2.3374311    
    346000   1066.8495     -98.522757     -100.86708     -100.86708      2.3443191    
    347000   1048.3382     -99.141755     -101.4454      -101.4454       2.303642     
    348000   999.29085     -97.646714     -99.842579     -99.842579      2.1958642    
    349000   1039.3474     -97.524881     -99.808766     -99.808766      2.2838853    
    350000   1084.1048     -97.485007     -99.867243     -99.867243      2.3822363    
    351000   984.62122     -97.45277      -99.616399     -99.616399      2.1636288    
    352000   1062.3762     -97.12359      -99.45808      -99.45808       2.3344893    
    353000   1094.1304     -97.886748     -100.29101     -100.29101      2.4042666    
    354000   1010.1024     -97.684236     -99.903858     -99.903858      2.2196216    
    355000   1090.3108     -98.272623     -100.6685      -100.6685       2.3958735    
    356000   1059.1184     -98.181206     -100.50854     -100.50854      2.3273306    
    357000   1087.437      -99.011419     -101.40098     -101.40098      2.3895584    
    358000   1082.9069     -99.009396     -101.389       -101.389        2.379604     
    359000   1087.72       -98.795129     -101.18531     -101.18531      2.3901803    
    360000   1119.4877     -98.465931     -100.92592     -100.92592      2.4599874    
    361000   1115.2385     -98.148639     -100.59929     -100.59929      2.4506501    
    362000   1055.3029     -97.26414      -99.583086     -99.583086      2.3189463    
    363000   1131.1368     -97.628198     -100.11378     -100.11378      2.4855854    
    364000   1100.7264     -97.505957     -99.924717     -99.924717      2.4187609    
    365000   1121.0746     -96.542863     -99.006338     -99.006338      2.4634745    
    366000   1085.5901     -97.066323     -99.451823     -99.451823      2.3855       
    367000   1077.0068     -96.664511     -99.03115      -99.03115       2.3666388    
    368000   1094.0685     -97.081186     -99.485316     -99.485316      2.4041306    
    369000   1046.2154     -96.609605     -98.908583     -98.908583      2.2989772    
    370000   1135.9554     -97.582406     -100.07858     -100.07858      2.496174     
    371000   1095.6625     -97.651866     -100.0595      -100.0595       2.4076333    
    372000   1111.0672     -97.837207     -100.27869     -100.27869      2.441484     
    373000   1081.0709     -97.553941     -99.92951      -99.92951       2.3755694    
    374000   1110.1158     -98.39843      -100.83782     -100.83782      2.4393935    
    375000   1133.5589     -97.718503     -100.20941     -100.20941      2.4909077    
    376000   1131.3636     -98.622872     -101.10896     -101.10896      2.4860837    
    377000   1099.8173     -99.410869     -101.82763     -101.82763      2.4167633    
    378000   1129.8324     -98.498642     -100.98136     -100.98136      2.4827191    
    379000   1133.0308     -97.892713     -100.38246     -100.38246      2.4897474    
    380000   1127.6125     -97.404832     -99.882673     -99.882673      2.4778409    
    381000   1097.0092     -97.127139     -99.537731     -99.537731      2.4105927    
    382000   1180.4485     -96.38602      -98.979964     -98.979964      2.593944     
    383000   1145.5428     -96.740659     -99.257901     -99.257901      2.5172415    
    384000   1202.3675     -95.445219     -98.087328     -98.087328      2.6421093    
    385000   1151.057      -97.063991     -99.59335      -99.59335       2.5293584    
    386000   1103.2069     -95.817383     -98.241595     -98.241595      2.4242117    
    387000   1213.1091     -97.46376      -100.12947     -100.12947      2.6657131    
    388000   1164.4531     -98.109337     -100.66813     -100.66813      2.5587953    
    389000   1230.7897     -98.362887     -101.06745     -101.06745      2.7045648    
    390000   1223.5019     -97.609137     -100.29769     -100.29769      2.6885505    
    391000   1145.0776     -98.050636     -100.56686     -100.56686      2.5162192    
    392000   1169.5025     -97.658116     -100.22801     -100.22801      2.5698911    
    393000   1153.8669     -96.235127     -98.77066      -98.77066       2.5355331    
    394000   1122.1142     -98.011167     -100.47693     -100.47693      2.4657589    
    395000   1226.179      -97.071704     -99.766137     -99.766137      2.6944332    
    396000   1164.7399     -97.51905      -100.07848     -100.07848      2.5594256    
    397000   1221.3281     -97.431852     -100.11563     -100.11563      2.6837737    
    398000   1175.1717     -97.119995     -99.702344     -99.702344      2.5823486    
    399000   1195.6806     -96.943825     -99.57124      -99.57124       2.6274155    
    400000   1189.4357     -97.143867     -99.75756      -99.75756       2.6136928    
    401000   1160.2128     -96.672369     -99.221847     -99.221847      2.5494777    
    402000   1220.4973     -97.023281     -99.705229     -99.705229      2.6819482    
    403000   1249.2718     -97.504485     -100.24966     -100.24966      2.7451779    
    404000   1239.4884     -97.481574     -100.20525     -100.20525      2.7236797    
    405000   1172.8439     -97.091693     -99.668926     -99.668926      2.5772335    
    406000   1224.2915     -97.858871     -100.54916     -100.54916      2.6902856    
    407000   1217.3302     -97.679925     -100.35491     -100.35491      2.6749887    
    408000   1233.0385     -98.492811     -101.20232     -101.20232      2.7095066    
    409000   1195.9398     -98.311058     -100.93904     -100.93904      2.627985     
    410000   1184.6938     -97.332137     -99.93541      -99.93541       2.6032728    
    411000   1247.2934     -97.895296     -100.63613     -100.63613      2.7408305    
    412000   1225.7641     -97.404173     -100.09769     -100.09769      2.6935215    
    413000   1227.7854     -97.192723     -99.890686     -99.890686      2.6979631    
    414000   1240.2521     -96.498738     -99.224096     -99.224096      2.7253578    
    415000   1219.9704     -97.410002     -100.09079     -100.09079      2.6807903    
    416000   1211.2573     -96.998657     -99.660301     -99.660301      2.6616441    
    417000   1235.4129     -95.558624     -98.273348     -98.273348      2.714724     
    418000   1288.748      -95.69539      -98.527314     -98.527314      2.8319238    
    419000   1220.7632     -97.102308     -99.78484      -99.78484       2.6825324    
    420000   1233.7027     -96.491886     -99.202852     -99.202852      2.710966     
    421000   1223.8687     -97.782555     -100.47191     -100.47191      2.6893566    
    422000   1272.7595     -96.819857     -99.616647     -99.616647      2.7967902    
    423000   1243.0725     -97.295926     -100.02748     -100.02748      2.7315554    
    424000   1212.9582     -97.433073     -100.09845     -100.09845      2.6653815    
    425000   1284.9545     -97.550764     -100.37435     -100.37435      2.8235879    
    426000   1285.5828     -96.842556     -99.667524     -99.667524      2.8249685    
    427000   1297.1593     -97.77554      -100.62595     -100.62595      2.850407     
    428000   1246.2682     -97.659475     -100.39805     -100.39805      2.7385776    
    429000   1250.8928     -95.791088     -98.539828     -98.539828      2.7487399    
    430000   1232.786      -95.813796     -98.522747     -98.522747      2.7089517    
    431000   1293.3117     -97.78964      -100.63159     -100.63159      2.8419523    
    432000   1311.2023     -97.199888     -100.08115     -100.08115      2.8812653    
    433000   1267.2551     -97.708516     -100.49321     -100.49321      2.7846948    
    434000   1236.9886     -96.630321     -99.348507     -99.348507      2.7181865    
    435000   1293.6718     -96.213413     -99.056157     -99.056157      2.8427435    
    436000   1294.1063     -97.216981     -100.06068     -100.06068      2.8436983    
    437000   1264.5721     -97.030244     -99.809043     -99.809043      2.7787992    
    438000   1285.9084     -97.09047      -99.916154     -99.916154      2.8256841    
    439000   1385.0542     -96.438395     -99.481944     -99.481944      3.0435492    
    440000   1293.0572     -96.072342     -98.913735     -98.913735      2.8413929    
    441000   1337.612      -96.117211     -99.056509     -99.056509      2.9392986    
    442000   1363.6021     -95.19558      -98.191989     -98.191989      2.9964098    
    443000   1242.628      -95.64616      -98.376739     -98.376739      2.7305788    
    444000   1289.7982     -95.257507     -98.091739     -98.091739      2.8342316    
    445000   1340.4583     -95.818461     -98.764014     -98.764014      2.9455533    
    446000   1370.3181     -95.734396     -98.745564     -98.745564      3.0111678    
    447000   1343.0219     -97.31042      -100.26161     -100.26161      2.9511864    
    448000   1314.7755     -97.397733     -100.28685     -100.28685      2.8891171    
    449000   1375.9761     -96.979908     -100.00351     -100.00351      3.0236008    
    450000   1380.9633     -97.222127     -100.25669     -100.25669      3.0345598    
    451000   1329.7067     -97.392504     -100.31443     -100.31443      2.9219273    
    452000   1363.4231     -97.499398     -100.49542     -100.49542      2.9960165    
    453000   1382.7244     -97.436522     -100.47495     -100.47495      3.0384296    
    454000   1338.668      -97.160008     -100.10163     -100.10163      2.9416192    
    455000   1371.1905     -96.09237      -99.105454     -99.105454      3.0130848    
    456000   1361.2691     -95.073059     -98.064342     -98.064342      2.9912832    
    457000   1369.5756     -94.365918     -97.375455     -97.375455      3.0095362    
    458000   1348.1251     -95.255759     -98.218159     -98.218159      2.9624004    
    459000   1350.8397     -95.882972     -98.851337     -98.851337      2.9683656    
    460000   1371.5635     -95.825122     -98.839026     -98.839026      3.0139044    
    461000   1349.2737     -94.7368       -97.701725     -97.701725      2.9649243    
    462000   1343.2428     -95.860755     -98.812427     -98.812427      2.9516719    
    463000   1408.8654     -95.921799     -99.017672     -99.017672      3.0958726    
    464000   1433.6232     -97.064298     -100.21457     -100.21457      3.1502758    
    465000   1402.3966     -96.871753     -99.953411     -99.953411      3.0816577    
    466000   1421.9392     -96.789941     -99.914542     -99.914542      3.1246012    
    467000   1419.1692     -95.904792     -99.023306     -99.023306      3.1185143    
    468000   1390.5089     -96.803768     -99.859303     -99.859303      3.0555354    
    469000   1412.0808     -97.870366     -100.9733      -100.9733       3.102938     
    470000   1427.8879     -96.112711     -99.250384     -99.250384      3.137673     
    471000   1409.8145     -96.192641     -99.290599     -99.290599      3.0979581    
    472000   1393.4116     -95.641363     -98.703277     -98.703277      3.061914     
    473000   1449.7355     -94.452161     -97.637842     -97.637842      3.1856814    
    474000   1425.7816     -95.346883     -98.479928     -98.479928      3.1330444    
    475000   1423.5676     -96.994809     -100.12299     -100.12299      3.1281794    
    476000   1426.9358     -97.655462     -100.79104     -100.79104      3.1355808    
    477000   1406.7036     -96.907593     -99.998715     -99.998715      3.091122     
    478000   1424.8627     -97.343203     -100.47423     -100.47423      3.1310252    
    479000   1376.3416     -97.973088     -100.99749     -100.99749      3.024404     
    480000   1448.2079     -96.182608     -99.364933     -99.364933      3.1823246    
    481000   1481.3764     -95.643953     -98.899163     -98.899163      3.2552098    
    482000   1509.4079     -95.462282     -98.779089     -98.779089      3.3168068    
    483000   1458.6034     -95.807603     -99.012771     -99.012771      3.2051678    
    484000   1457.6895     -96.582149     -99.785309     -99.785309      3.2031596    
    485000   1401.2717     -95.959051     -99.038237     -99.038237      3.079186     
    486000   1445.8405     -95.467373     -98.644496     -98.644496      3.1771224    
    487000   1459.29       -95.115527     -98.322204     -98.322204      3.2066767    
    488000   1471.6753     -95.378817     -98.612709     -98.612709      3.2338923    
    489000   1534.8539     -95.38457      -98.757292     -98.757292      3.3727225    
    490000   1520.0444     -95.952156     -99.292336     -99.292336      3.3401797    
    491000   1486.6796     -95.997428     -99.264291     -99.264291      3.2668631    
    492000   1498.6162     -96.583431     -99.876524     -99.876524      3.2930929    
    493000   1468.3426     -97.098533     -100.3251      -100.3251       3.2265691    
    494000   1547.0952     -93.86002      -97.259642     -97.259642      3.3996218    
    495000   1448.595      -96.010727     -99.193902     -99.193902      3.1831752    
    496000   1447.1244     -96.27393      -99.453874     -99.453874      3.1799437    
    497000   1486.0571     -96.740667     -100.00616     -100.00616      3.2654951    
    498000   1527.6022     -96.557702     -99.914489     -99.914489      3.3567874    
    499000   1513.6832     -96.318854     -99.645055     -99.645055      3.3262014    
    500000   1438.1003     -95.791934     -98.952048     -98.952048      3.1601139    
    501000   1599.0414     -95.431707     -98.945476     -98.945476      3.5137695    
    502000   1495.4889     -94.45593      -97.742151     -97.742151      3.2862209    
    503000   1584.8138     -95.758727     -99.241233     -99.241233      3.4825054    
    504000   1471.6243     -95.276238     -98.510019     -98.510019      3.2337803    
    505000   1529.0454     -96.97934      -100.3393      -100.3393       3.3599588    
    506000   1534.9498     -95.856362     -99.229295     -99.229295      3.3729332    
    507000   1481.8765     -95.625764     -98.882073     -98.882073      3.2563087    
    508000   1516.1685     -95.776663     -99.108326     -99.108326      3.3316628    
    509000   1503.3582     -94.94922      -98.252733     -98.252733      3.3035131    
    510000   1538.7537     -96.478339     -99.859631     -99.859631      3.381292     
    511000   1540.795      -93.907382     -97.29316      -97.29316       3.3857775    
    512000   1524.4904     -96.986055     -100.336       -100.336        3.3499495    
    513000   1575.6825     -95.768106     -99.230546     -99.230546      3.4624402    
    514000   1539.1502     -94.787087     -98.16925      -98.16925       3.3821632    
    515000   1630.1443     -93.939805     -97.521921     -97.521921      3.5821157    
    516000   1605.949      -95.677033     -99.205981     -99.205981      3.5289484    
    517000   1527.9102     -95.758828     -99.116292     -99.116292      3.3574641    
    518000   1537.2028     -96.572688     -99.950572     -99.950572      3.3778839    
    519000   1528.68       -95.429423     -98.788579     -98.788579      3.3591558    
    520000   1564.362      -95.830275     -99.267839     -99.267839      3.4375642    
    521000   1545.7726     -95.383875     -98.78059      -98.78059       3.3967155    
    522000   1589.0565     -96.419092     -99.910921     -99.910921      3.4918284    
    523000   1602.8668     -96.860509     -100.38268     -100.38268      3.5221755    
    524000   1578.9673     -95.198885     -98.668544     -98.668544      3.4696583    
    525000   1583.9564     -95.615923     -99.096544     -99.096544      3.4806213    
    526000   1573.484      -95.430629     -98.888238     -98.888238      3.4576091    
    527000   1569.3393     -95.644782     -99.093283     -99.093283      3.4485014    
    528000   1586.6448     -95.847959     -99.334488     -99.334488      3.4865289    
    529000   1574.4415     -95.24038      -98.700093     -98.700093      3.4597131    
    530000   1628.6335     -94.238617     -97.817413     -97.817413      3.5787959    
    531000   1562.6359     -95.569491     -99.003262     -99.003262      3.4337712    
    532000   1541.3053     -94.661104     -98.048003     -98.048003      3.3868989    
    533000   1612.6165     -95.833348     -99.376947     -99.376947      3.5435997    
    534000   1664.5485     -94.359484     -98.0172       -98.0172        3.6577162    
    535000   1549.9669     -95.285362     -98.691294     -98.691294      3.4059321    
    536000   1572.9327     -96.853614     -100.31001     -100.31001      3.4563976    
    537000   1653.9379     -95.201854     -98.836254     -98.836254      3.6344002    
    538000   1646.0066     -94.855095     -98.472067     -98.472067      3.6169718    
    539000   1610.5926     -94.892954     -98.432106     -98.432106      3.5391524    
    540000   1614.9212     -95.094145     -98.642809     -98.642809      3.5486642    
    541000   1561.416      -95.92382      -99.35491      -99.35491       3.4310905    
    542000   1747.8754     -94.512271     -98.353091     -98.353091      3.8408206    
    543000   1656.3813     -95.79855      -99.43832      -99.43832       3.6397695    
    544000   1655.6776     -96.349872     -99.988096     -99.988096      3.6382232    
    545000   1591.0337     -96.550366     -100.04654     -100.04654      3.4961732    
    546000   1590.2329     -96.740134     -100.23455     -100.23455      3.4944134    
    547000   1646.961      -94.352054     -97.971123     -97.971123      3.619069     
    548000   1622.4269     -94.888535     -98.453692     -98.453692      3.5651574    
    549000   1573.6597     -96.333135     -99.79113      -99.79113       3.4579951    
    550000   1690.1205     -94.02364      -97.737549     -97.737549      3.7139087    
    551000   1655.6255     -94.086062     -97.72417      -97.72417       3.6381086    
    552000   1669.8673     -94.723145     -98.392549     -98.392549      3.669404     
    553000   1652.3685     -94.719747     -98.350699     -98.350699      3.6309516    
    554000   1655.6018     -94.962269     -98.600325     -98.600325      3.6380566    
    555000   1700.3366     -94.396159     -98.132517     -98.132517      3.7363579    
    556000   1683.415      -95.119911     -98.819085     -98.819085      3.6991739    
    557000   1663.9494     -95.024147     -98.680547     -98.680547      3.6563998    
    558000   1698.6426     -95.490643     -99.223278     -99.223278      3.7326353    
    559000   1676.7221     -96.665901     -100.35037     -100.35037      3.6844669    
    560000   1705.8874     -95.446236     -99.194791     -99.194791      3.7485554    
    561000   1688.9213     -95.763012     -99.474286     -99.474286      3.7112737    
    562000   1712.4964     -95.537882     -99.30096      -99.30096       3.7630781    
    563000   1613.6922     -93.850703     -97.396667     -97.396667      3.5459636    
    564000   1696.487      -94.505868     -98.233766     -98.233766      3.7278987    
    565000   1699.0263     -95.796502     -99.529981     -99.529981      3.7334785    
    566000   1756.1921     -94.150832     -98.009928     -98.009928      3.859096     
    567000   1797.7416     -94.678011     -98.628409     -98.628409      3.9503978    
    568000   1768.2148     -94.775056     -98.660571     -98.660571      3.885515     
    569000   1681.6501     -94.50776      -98.203056     -98.203056      3.6952957    
    570000   1679.0284     -93.38623      -97.075765     -97.075765      3.6895348    
    571000   1799.2284     -95.195429     -99.149094     -99.149094      3.9536649    
    572000   1776.1944     -94.798243     -98.701293     -98.701293      3.9030496    
    573000   1727.9943     -95.258475     -99.055608     -99.055608      3.7971335    
    574000   1781.451      -94.585382     -98.499982     -98.499982      3.9146004    
    575000   1752.3899     -94.229478     -98.080219     -98.080219      3.8507408    
    576000   1759.2812     -94.472871     -98.338755     -98.338755      3.865884     
    577000   1724.9818     -96.307039     -100.09755     -100.09755      3.7905138    
    578000   1718.8608     -95.529206     -99.30627      -99.30627       3.7770632    
    579000   1743.7937     -95.09686      -98.928711     -98.928711      3.8318514    
    580000   1767.3391     -95.625784     -99.509374     -99.509374      3.8835907    
    581000   1782.8262     -95.572782     -99.490405     -99.490405      3.9176224    
    582000   1749.3896     -95.137103     -98.98125      -98.98125       3.844148     
    583000   1734.7481     -95.213758     -99.025733     -99.025733      3.8119745    
    584000   1736.4941     -92.091442     -95.907253     -95.907253      3.8158112    
    585000   1720.8839     -94.007356     -97.788865     -97.788865      3.7815089    
    586000   1709.541      -94.601039     -98.357622     -98.357622      3.7565837    
    587000   1718.6718     -93.992117     -97.768765     -97.768765      3.776648     
    588000   1775.703      -93.732438     -97.634408     -97.634408      3.9019696    
    589000   1812.9995     -94.589205     -98.57313      -98.57313       3.9839258    
    590000   1743.781      -93.450102     -97.281926     -97.281926      3.8318235    
    591000   1975.4447     -93.925354     -98.26624      -98.26624       4.3408866    
    592000   1800.0174     -96.024206     -99.979605     -99.979605      3.9553987    
    593000   1698.5339     -97.013802     -100.7462      -100.7462       3.7323964    
    594000   1680.6284     -96.62013      -100.31318     -100.31318      3.6930507    
    595000   1801.5327     -95.122331     -99.08106      -99.08106       3.9587284    
    596000   1807.1688     -95.938181     -99.909294     -99.909294      3.9711133    
    597000   1726.3867     -95.958936     -99.752537     -99.752537      3.7936009    
    598000   1842.5828     -95.400924     -99.449857     -99.449857      4.0489329    
    599000   1841.7461     -96.41474      -100.46183     -100.46183      4.0470943    
    600000   1723.5974     -95.531654     -99.319126     -99.319126      3.7874717    
    601000   1777.5404     -94.840614     -98.746621     -98.746621      3.9060073    
    602000   1800.3384     -97.435304     -101.39141     -101.39141      3.956104     
    603000   1857.7082     -96.994524     -101.07669     -101.07669      4.0821697    
    604000   1841.1203     -97.282985     -101.3287      -101.3287       4.0457192    
    605000   1830.7442     -98.564131     -102.58705     -102.58705      4.0229184    
    606000   1833.6376     -97.478633     -101.50791     -101.50791      4.0292764    
    607000   1837.1883     -97.353194     -101.39027     -101.39027      4.0370789    
    608000   1821.0456     -96.030815     -100.03242     -100.03242      4.0016065    
    609000   1779.1954     -96.051282     -99.960926     -99.960926      3.909644     
    610000   1908.775      -96.656658     -100.85104     -100.85104      4.194385     
    611000   1755.9219     -95.713394     -99.571896     -99.571896      3.8585022    
    612000   1787.3062     -95.9361       -99.863567     -99.863567      3.9274668    
    613000   1869.1156     -95.47301      -99.580247     -99.580247      4.1072366    
    614000   1853.1985     -97.799942     -101.8722      -101.8722       4.07226      
    615000   1906.4465     -96.140373     -100.32964     -100.32964      4.1892684    
    616000   1933.8907     -94.882603     -99.132178     -99.132178      4.2495749    
    617000   1790.7479     -96.56908      -100.50411     -100.50411      3.9350298    
    618000   1969.2226     -94.431492     -98.758706     -98.758706      4.327214     
    619000   1817.1048     -94.381932     -98.374879     -98.374879      3.9929469    
    620000   1858.603      -95.342524     -99.42666      -99.42666       4.0841361    
    621000   1876.5827     -97.36139      -101.48504     -101.48504      4.123645     
    622000   1856.7261     -96.088127     -100.16814     -100.16814      4.0800116    
    623000   1964.0242     -94.581932     -98.897723     -98.897723      4.3157909    
    624000   1866.9314     -95.78687      -99.889307     -99.889307      4.102437     
    625000   1933.6636     -93.350681     -97.599757     -97.599757      4.2490759    
    626000   1828.4175     -94.8209       -98.838705     -98.838705      4.0178056    
    627000   1846.5843     -94.646745     -98.704471     -98.704471      4.0577258    
    628000   1890.2683     -96.361299     -100.51502     -100.51502      4.153718     
    629000   1895.9555     -96.13735      -100.30357     -100.30357      4.1662152    
    630000   1854.3209     -95.536883     -99.61161      -99.61161       4.0747263    
    631000   1941.9433     -94.360825     -98.628095     -98.628095      4.2672699    
    632000   1861.5202     -95.003566     -99.094113     -99.094113      4.0905463    
    633000   1840.3852     -94.023886     -98.067989     -98.067989      4.0441038    
    634000   1920.5649     -94.797678     -99.01797      -99.01797       4.2202924    
    635000   1950.4554     -95.00713      -99.293104     -99.293104      4.2859745    
    636000   1977.388      -93.489124     -97.834281     -97.834281      4.3451567    
    637000   1949.9591     -94.813798     -99.098682     -99.098682      4.2848839    
    638000   1929.7961     -94.6703       -98.910878     -98.910878      4.2405774    
    639000   1943.5458     -95.629528     -99.900319     -99.900319      4.2707911    
    640000   1967.5039     -95.944695     -100.26813     -100.26813      4.3234373    
    641000   1888.7112     -95.710697     -99.860994     -99.860994      4.1502964    
    642000   2022.05       -95.444236     -99.887534     -99.887534      4.4432981    
    643000   1999.5364     -92.509776     -96.903602     -96.903602      4.3938261    
    644000   1905.3045     -93.099319     -97.286078     -97.286078      4.1867589    
    645000   1861.5648     -95.181513     -99.272157     -99.272157      4.0906444    
    646000   1882.587      -96.0073       -100.14414     -100.14414      4.1368389    
    647000   1930.6525     -96.431162     -100.67362     -100.67362      4.2424592    
    648000   1932.2369     -95.224253     -99.470194     -99.470194      4.2459409    
    649000   1862.9239     -93.799543     -97.893174     -97.893174      4.0936308    
    650000   1922.3338     -95.080165     -99.304345     -99.304345      4.2241794    
    651000   1965.2743     -95.006438     -99.324976     -99.324976      4.3185379    
    652000   1940.2759     -94.825574     -99.089179     -99.089179      4.2636058    
    653000   1954.1175     -95.53519      -99.829211     -99.829211      4.2940218    
    654000   1971.9983     -94.323264     -98.656577     -98.656577      4.3333135    
    655000   1925.1503     -95.401913     -99.632281     -99.632281      4.2303686    
    656000   1959.2968     -94.954614     -99.260017     -99.260017      4.3054029    
    657000   1904.4433     -96.122729     -100.3076      -100.3076       4.1848665    
    658000   1923.6141     -95.69989      -99.926883     -99.926883      4.2269928    
    659000   2100.4298     -94.018231     -98.633763     -98.633763      4.6155317    
    660000   1930.3229     -94.690942     -98.932677     -98.932677      4.2417349    
    661000   1955.641      -94.958489     -99.255859     -99.255859      4.2973696    
    662000   2000.4101     -94.700921     -99.096667     -99.096667      4.3957461    
    663000   2006.7192     -95.371761     -99.78137      -99.78137       4.4096099    
    664000   1975.6115     -95.787705     -100.12896     -100.12896      4.3412532    
    665000   2033.6069     -93.861025     -98.329718     -98.329718      4.4686934    
    666000   1956.1252     -93.788774     -98.087208     -98.087208      4.2984334    
    667000   1901.2666     -95.88348      -100.06137     -100.06137      4.1778858    
    668000   1945.8342     -95.42342      -99.69924      -99.69924       4.2758197    
    669000   2061.2573     -94.117973     -98.647426     -98.647426      4.5294531    
    670000   2041.4426     -96.00669      -100.4926      -100.4926       4.4859119    
    671000   1972.1854     -94.423839     -98.757563     -98.757563      4.3337246    
    672000   2160.8982     -93.373855     -98.122261     -98.122261      4.7484063    
    673000   2015.9606     -93.210086     -97.640003     -97.640003      4.4299171    
    674000   2121.018      -94.28164      -98.942413     -98.942413      4.6607726    
    675000   2193.0881     -94.123873     -98.943014     -98.943014      4.8191411    
    676000   1994.7455     -94.207064     -98.590362     -98.590362      4.3832985    
    677000   1989.3099     -93.715536     -98.08689      -98.08689       4.3713542    
    678000   1946.545      -95.395286     -99.672668     -99.672668      4.2773816    
    679000   2031.8233     -94.174341     -98.639115     -98.639115      4.4647742    
    680000   2027.0646     -95.423296     -99.877613     -99.877613      4.4543173    
    681000   2071.7559     -96.879234     -101.43176     -101.43176      4.552523     
    682000   2013.3825     -95.858788     -100.28304     -100.28304      4.424252     
    683000   2110.7896     -95.535539     -100.17384     -100.17384      4.6382965    
    684000   2039.4624     -94.457419     -98.938979     -98.938979      4.4815604    
    685000   2008.9181     -94.974382     -99.388824     -99.388824      4.4144418    
    686000   2022.6418     -96.00195      -100.44655     -100.44655      4.4445986    
    687000   2094.1266     -94.946384     -99.548065     -99.548065      4.6016809    
    688000   2031.1372     -95.546416     -100.00968     -100.00968      4.4632666    
    689000   2170.3021     -95.033378     -99.802449     -99.802449      4.7690706    
    690000   2002.9252     -91.578976     -95.980249     -95.980249      4.4012728    
    691000   1958.6397     -92.001936     -96.305895     -96.305895      4.3039588    
    692000   2096.8465     -94.229178     -98.836835     -98.836835      4.6076576    
    693000   2060.9635     -95.458879     -99.987687     -99.987687      4.5288075    
    694000   2104.4229     -95.856204     -100.48051     -100.48051      4.6243061    
    695000   2150.7313     -93.951383     -98.677448     -98.677448      4.7260653    
    696000   2150.4966     -95.796899     -100.52245     -100.52245      4.7255495    
    697000   2084.2035     -95.070922     -99.650798     -99.650798      4.5798757    
    698000   2124.5181     -95.303781     -99.972244     -99.972244      4.6684638    
    699000   2154.1953     -95.125801     -99.859478     -99.859478      4.7336771    
    700000   2119.4439     -94.994921     -99.652234     -99.652234      4.6573137    
    701000   2165.6685     -95.14003      -99.898919     -99.898919      4.7588887    
    702000   2092.5547     -95.303248     -99.901475     -99.901475      4.5982267    
    703000   2160.2433     -93.665959     -98.412926     -98.412926      4.7469671    
    704000   2061.9633     -93.22611      -97.757115     -97.757115      4.5310044    
    705000   2068.4176     -93.602178     -98.147365     -98.147365      4.5451873    
    706000   2197.8081     -92.688533     -97.518046     -97.518046      4.8295128    
    707000   2094.4091     -93.672509     -98.27481      -98.27481       4.6023016    
    708000   2117.3289     -94.302028     -98.954694     -98.954694      4.6526661    
    709000   2147.1424     -94.885305     -99.603484     -99.603484      4.718179     
    710000   2083.048      -95.516231     -100.09357     -100.09357      4.5773364    
    711000   2166.4616     -96.948312     -101.70894     -101.70894      4.7606315    
    712000   2065.6783     -95.740628     -100.2798      -100.2798       4.5391679    
    713000   2161.9376     -96.084397     -100.83509     -100.83509      4.7506903    
    714000   2060.9585     -95.950143     -100.47894     -100.47894      4.5287966    
    715000   2146.7218     -95.255119     -99.972374     -99.972374      4.7172548    
    716000   2183.5321     -96.487125     -101.28527     -101.28527      4.7981426    
    717000   2144.6879     -96.520841     -101.23363     -101.23363      4.7127853    
    718000   2163.6682     -94.946757     -99.701251     -99.701251      4.7544932    
    719000   2167.3753     -94.387635     -99.150274     -99.150274      4.7626392    
    720000   2174.4344     -95.202343     -99.980494     -99.980494      4.778151     
    721000   2218.1713     -94.480245     -99.354504     -99.354504      4.8742595    
    722000   2182.9295     -94.269829     -99.066647     -99.066647      4.7968184    
    723000   2187.9727     -92.56336      -97.37126      -97.37126       4.8079004    
    724000   2197.5251     -95.579898     -100.40879     -100.40879      4.828891     
    725000   2177.0308     -94.739597     -99.523453     -99.523453      4.7838563    
    726000   2132.7205     -93.65561      -98.342098     -98.342098      4.6864879    
    727000   2182.9925     -95.01075      -99.807707     -99.807707      4.7969568    
    728000   2140.3915     -95.516583     -100.21993     -100.21993      4.7033443    
    729000   2209.6562     -93.956886     -98.812434     -98.812434      4.8555483    
    730000   2168.9684     -95.500304     -100.26644     -100.26644      4.7661399    
    731000   2177.6934     -93.565171     -98.350484     -98.350484      4.7853124    
    732000   2189.1918     -94.628966     -99.439545     -99.439545      4.8105793    
    733000   2249.7948     -94.00757      -98.95132      -98.95132       4.9437496    
    734000   2155.6941     -94.173134     -98.910104     -98.910104      4.7369707    
    735000   2367.1361     -92.142296     -97.343894     -97.343894      5.2015979    
    736000   2248.2696     -94.43723      -99.377628     -99.377628      4.9403981    
    737000   2197.5101     -93.645738     -98.474597     -98.474597      4.8288581    
    738000   2135.1666     -92.949061     -97.640925     -97.640925      4.6918631    
    739000   2227.7914     -94.787341     -99.68274      -99.68274       4.8953988    
    740000   2242.631      -94.952148     -99.880156     -99.880156      4.9280077    
    741000   2250.7743     -93.435759     -98.381661     -98.381661      4.945902     
    742000   2210.2446     -95.018394     -99.875235     -99.875235      4.8568411    
    743000   2229.1319     -93.97054      -98.868885     -98.868885      4.8983445    
    744000   2273.5268     -94.66591      -99.661809     -99.661809      4.9958989    
    745000   2255.0479     -94.499608     -99.454901     -99.454901      4.9552929    
    746000   2253.0416     -95.285565     -100.23645     -100.23645      4.9508843    
    747000   2168.241      -93.154228     -97.918769     -97.918769      4.7645414    
    748000   2179.48       -94.551279     -99.340517     -99.340517      4.7892384    
    749000   2331.8449     -94.519612     -99.64366      -99.64366       5.1240484    
    750000   2213.9162     -95.013887     -99.878796     -99.878796      4.8649091    
    751000   2264.8852     -95.020303     -99.997212     -99.997212      4.9769097    
    752000   2289.0705     -95.606014     -100.63607     -100.63607      5.030055     
    753000   2212.9584     -91.65341      -96.516214     -96.516214      4.8628045    
    754000   2298.9317     -94.126457     -99.178182     -99.178182      5.0517241    
    755000   2279.9987     -93.943832     -98.953952     -98.953952      5.0101205    
    756000   2260.6478     -93.882891     -98.850489     -98.850489      4.9675983    
    757000   2290.1755     -93.494275     -98.526758     -98.526758      5.032483     
    758000   2278.69       -93.50946      -98.516704     -98.516704      5.0072447    
    759000   2245.9779     -93.247721     -98.183083     -98.183083      4.9353622    
    760000   2344.7046     -94.52972      -99.682027     -99.682027      5.1523066    
    761000   2232.8637     -94.683968     -99.590513     -99.590513      4.9065449    
    762000   2340.6784     -92.928486     -98.071945     -98.071945      5.1434594    
    763000   2261.119      -93.930855     -98.899489     -98.899489      4.9686336    
    764000   2278.2804     -94.366931     -99.373276     -99.373276      5.0063444    
    765000   2218.6202     -93.273216     -98.148462     -98.148462      4.875246     
    766000   2356.5854     -93.185273     -98.363687     -98.363687      5.1784138    
    767000   2268.0177     -93.42995      -98.413743     -98.413743      4.9837931    
    768000   2301.9521     -94.98091      -100.03927     -100.03927      5.0583612    
    769000   2309.854      -92.386646     -97.462371     -97.462371      5.0757251    
    770000   2344.8235     -93.176928     -98.329496     -98.329496      5.1525677    
    771000   2436.2578     -94.029919     -99.383406     -99.383406      5.3534876    
    772000   2352.7818     -93.122605     -98.29266      -98.29266       5.1700555    
    773000   2221.1363     -94.512148     -99.392923     -99.392923      4.8807748    
    774000   2370.5318     -92.487111     -97.696171     -97.696171      5.2090599    
    775000   2274.5415     -95.175028     -100.17316     -100.17316      4.9981287    
    776000   2220.7631     -94.406927     -99.286882     -99.286882      4.8799547    
    777000   2434.5891     -93.38309      -98.732911     -98.732911      5.3498207    
    778000   2329.9027     -94.260101     -99.379881     -99.379881      5.1197805    
    779000   2307.2207     -95.101268     -100.17121     -100.17121      5.0699387    
    780000   2354.6827     -95.614815     -100.78905     -100.78905      5.1742327    
    781000   2255.1785     -94.910467     -99.866047     -99.866047      4.9555799    
    782000   2298.8659     -95.531089     -100.58267     -100.58267      5.0515796    
    783000   2295.3672     -95.439891     -100.48378     -100.48378      5.0438915    
    784000   2371.8335     -94.096498     -99.308418     -99.308418      5.2119201    
    785000   2371.3141     -95.181762     -100.39254     -100.39254      5.2107789    
    786000   2343.8695     -93.33055      -98.481021     -98.481021      5.1504715    
    787000   2380.7554     -94.696944     -99.92847      -99.92847       5.2315254    
    788000   2338.6366     -95.408917     -100.54789     -100.54789      5.1389727    
    789000   2423.9133     -94.806813     -100.13317     -100.13317      5.3263615    
    790000   2184.3257     -94.670677     -99.470563     -99.470563      4.7998864    
    791000   2293.5057     -93.46474      -98.504541     -98.504541      5.0398009    
    792000   2303.0513     -93.462864     -98.52364      -98.52364       5.0607766    
    793000   2359.7379     -95.885712     -101.07105     -101.07105      5.1853411    
    794000   2185.0447     -93.647804     -98.449271     -98.449271      4.8014663    
    795000   2423.0695     -95.853853     -101.17836     -101.17836      5.3245074    
    796000   2294.442      -95.096227     -100.13809     -100.13809      5.0418583    
    797000   2469.3771     -95.655882     -101.08215     -101.08215      5.4262648    
    798000   2405.7293     -93.023092     -98.309496     -98.309496      5.2864035    
    799000   2421.7148     -95.238887     -100.56042     -100.56042      5.3215305    
    800000   2419.0811     -94.918874     -100.23462     -100.23462      5.3157432    
    801000   2496.6885     -96.297604     -101.78388     -101.78388      5.4862794    
    802000   2420.2492     -93.038407     -98.356717     -98.356717      5.31831      
    803000   2372.2283     -94.700044     -99.912831     -99.912831      5.2127877    
    804000   2284.7904     -94.567597     -99.588246     -99.588246      5.0206497    
    805000   2487.4337     -93.721631     -99.187574     -99.187574      5.4659427    
    806000   2426.8533     -93.959312     -99.292134     -99.292134      5.3328221    
    807000   2494.5068     -93.098162     -98.579647     -98.579647      5.4814852    
    808000   2484.3616     -92.768479     -98.227671     -98.227671      5.459192     
    809000   2581.2282     -95.084078     -100.75613     -100.75613      5.6720488    
    810000   2384.98       -94.994574     -100.23538     -100.23538      5.2408086    
    811000   2551.6378     -93.520703     -99.127729     -99.127729      5.6070261    
    812000   2475.0811     -95.206459     -100.64526     -100.64526      5.4387989    
    813000   2508.7848     -93.999022     -99.511882     -99.511882      5.51286      
    814000   2359.7223     -93.334346     -98.519653     -98.519653      5.1853069    
    815000   2453.3719     -94.56064      -99.951734     -99.951734      5.3910945    
    816000   2358.4144     -94.994029     -100.17646     -100.17646      5.1824327    
    817000   2344.6988     -95.346234     -100.49853     -100.49853      5.1522938    
    818000   2454.6087     -95.453246     -100.84706     -100.84706      5.3938122    
    819000   2522.0397     -93.78441      -99.326397     -99.326397      5.5419868    
    820000   2542.6683     -94.174764     -99.76208      -99.76208       5.5873164    
    821000   2381.7166     -95.336898     -100.57054     -100.57054      5.2336375    
    822000   2517.7533     -96.828799     -102.36137     -102.36137      5.5325676    
    823000   2447.3587     -95.254881     -100.63276     -100.63276      5.3778811    
    824000   2396.1431     -95.148887     -100.41423     -100.41423      5.2653386    
    825000   2518.9173     -95.894376     -101.4295      -101.4295       5.5351255    
    826000   2418.4834     -95.502301     -100.81673     -100.81673      5.3144297    
    827000   2385.7923     -95.288992     -100.53159     -100.53159      5.2425936    
    828000   2390.5769     -93.048722     -98.301829     -98.301829      5.2531073    
    829000   2504.1624     -93.578959     -99.081662     -99.081662      5.5027028    
    830000   2511.8227     -94.821248     -100.34078     -100.34078      5.5195357    
    831000   2425.8402     -94.439806     -99.770402     -99.770402      5.3305957    
    832000   2457.8201     -94.526994     -99.927863     -99.927863      5.4008692    
    833000   2505.358      -95.075765     -100.5811      -100.5811       5.5053299    
    834000   2503.1086     -94.566843     -100.06723     -100.06723      5.5003872    
    835000   2501.2385     -94.795764     -100.29204     -100.29204      5.4962776    
    836000   2592.9724     -96.884098     -102.58195     -102.58195      5.6978559    
    837000   2419.3018     -95.830263     -101.14649     -101.14649      5.3162282    
    838000   2508.9941     -94.841333     -100.35465     -100.35465      5.5133201    
    839000   2516.6737     -95.764883     -101.29508     -101.29508      5.5301953    
    840000   2693.336      -94.557522     -100.47592     -100.47592      5.918397     
    841000   2603.404      -94.521791     -100.24257     -100.24257      5.7207785    
    842000   2422.2457     -94.31767      -99.640367     -99.640367      5.322697     
    843000   2555.2553     -96.999373     -102.61435     -102.61435      5.6149753    
    844000   2499.2303     -94.475353     -99.967218     -99.967218      5.4918648    
    845000   2522.3471     -96.354772     -101.89743     -101.89743      5.5426622    
    846000   2556.1452     -93.512575     -99.129506     -99.129506      5.6169308    
    847000   2521.0963     -95.036802     -100.57672     -100.57672      5.5399136    
    848000   2491.632      -94.41645      -99.891618     -99.891618      5.4751682    
    849000   2644.3042     -93.584106     -99.39476      -99.39476       5.8106534    
    850000   2472.3599     -94.374031     -99.806851     -99.806851      5.4328192    
    851000   2548.7151     -94.483003     -100.08361     -100.08361      5.6006039    
    852000   2647.1725     -92.221406     -98.038363     -98.038363      5.8169562    
    853000   2723.2112     -95.671772     -101.65582     -101.65582      5.9840454    
    854000   2539.7119     -94.312016     -99.892836     -99.892836      5.58082      
    855000   2613.6786     -93.724639     -99.467995     -99.467995      5.743356     
    856000   2391.6422     -93.941952     -99.1974       -99.1974        5.2554482    
    857000   2531.757      -92.368957     -97.932297     -97.932297      5.5633397    
    858000   2689.4479     -94.213915     -100.12377     -100.12377      5.9098533    
    859000   2550.002      -92.48554      -98.088972     -98.088972      5.6034317    
    860000   2586.8747     -93.244504     -98.928961     -98.928961      5.6844565    
    861000   2560.8405     -95.48593      -101.11318     -101.11318      5.6272484    
    862000   2524.4683     -93.475504     -99.022827     -99.022827      5.5473234    
    863000   2805.4709     -95.899753     -102.06456     -102.06456      6.1648048    
    864000   2647.9741     -94.16356      -99.982277     -99.982277      5.8187178    
    865000   2629.7252     -96.560831     -102.33945     -102.33945      5.7786172    
    866000   2517.1749     -94.924481     -100.45578     -100.45578      5.5312968    
    867000   2595.5437     -94.403928     -100.10743     -100.10743      5.703506     
    868000   2540.7627     -93.17892      -98.762049     -98.762049      5.5831291    
    869000   2576.6787     -90.182838     -95.84489      -95.84489       5.6620516    
    870000   2675.2932     -95.718138     -101.59689     -101.59689      5.8787495    
    871000   2668.6855     -94.623013     -100.48724     -100.48724      5.8642294    
    872000   2609.0469     -92.448385     -98.181563     -98.181563      5.7331784    
    873000   2692.4208     -92.281113     -98.197499     -98.197499      5.916386     
    874000   2646.7707     -94.80139      -100.61746     -100.61746      5.8160733    
    875000   2706.0301     -95.864063     -101.81035     -101.81035      5.9462913    
    876000   2394.4418     -93.293058     -98.554659     -98.554659      5.2616001    
    877000   2544.5429     -95.030385     -100.62182     -100.62182      5.5914356    
    878000   2483.1282     -95.399138     -100.85562     -100.85562      5.4564817    
    879000   2667.992      -94.24173      -100.10444     -100.10444      5.8627056    
    880000   2508.5733     -95.713922     -101.22632     -101.22632      5.5123953    
    881000   2723.4044     -90.198938     -96.183408     -96.183408      5.98447      
    882000   2640.8933     -93.859823     -99.662982     -99.662982      5.8031583    
    883000   2664.3445     -95.800762     -101.65545     -101.65545      5.8546905    
    884000   2672.7105     -90.476384     -96.349458     -96.349458      5.8730742    
    885000   2678.4428     -94.880913     -100.76658     -100.76658      5.8856703    
    886000   2416.7535     -91.712911     -97.02354      -97.02354       5.3106284    
    887000   2592.118      -94.491883     -100.18786     -100.18786      5.6959784    
    888000   2620.0807     -95.575789     -101.33321     -101.33321      5.7574242    
    889000   2621.8215     -95.807013     -101.56826     -101.56826      5.7612494    
    890000   2635.3185     -94.246053     -100.03696     -100.03696      5.790908     
    891000   2711.7211     -92.352766     -98.311563     -98.311563      5.9587968    
    892000   2732.0714     -94.742267     -100.74578     -100.74578      6.0035151    
    893000   2698.7451     -94.441363     -100.37165     -100.37165      5.930283     
    894000   2622.5096     -94.218931     -99.981693     -99.981693      5.7627616    
    895000   2797.7782     -92.5681       -98.716001     -98.716001      6.1479006    
    896000   2688.5861     -95.016874     -100.92483     -100.92483      5.9079594    
    897000   2686.1856     -91.48985      -97.392535     -97.392535      5.9026847    
    898000   2678.95       -95.035262     -100.92205     -100.92205      5.8867849    
    899000   2537.1026     -95.011897     -100.58698     -100.58698      5.5750862    
    900000   2599.6134     -94.299929     -100.01238     -100.01238      5.7124489    
    901000   2712.5858     -95.388104     -101.3488      -101.3488       5.9606969    
    902000   2747.4734     -96.539684     -102.57704     -102.57704      6.0373598    
    903000   2636.6922     -94.266637     -100.06056     -100.06056      5.7939266    
    904000   2687.1007     -94.017552     -99.922248     -99.922248      5.9046954    
    905000   2600.5048     -93.930856     -99.645264     -99.645264      5.7144077    
    906000   2766.647      -93.744309     -99.823801     -99.823801      6.0794923    
    907000   2695.8241     -95.266163     -101.19003     -101.19003      5.9238644    
    908000   2785.213      -93.526084     -99.646374     -99.646374      6.1202896    
    909000   2720.1704     -94.929937     -100.9073      -100.9073       5.9773635    
    910000   2783.3462     -93.087235     -99.203422     -99.203422      6.1161875    
    911000   2673.6303     -94.656722     -100.53182     -100.53182      5.8750953    
    912000   2742.1133     -94.566145     -100.59173     -100.59173      6.0255814    
    913000   2636.8295     -93.824387     -99.618615     -99.618615      5.7942283    
    914000   2715.0317     -95.401206     -101.36728     -101.36728      5.9660717    
    915000   2644.5897     -95.513632     -101.32491     -101.32491      5.8112809    
    916000   2639.2941     -95.357044     -101.15669     -101.15669      5.7996442    
    917000   2739.2439     -94.890619     -100.90989     -100.90989      6.0192762    
    918000   2753.1187     -95.478455     -101.52822     -101.52822      6.0497649    
    919000   2632.7814     -94.703075     -100.48841     -100.48841      5.785333     
    920000   2699.6348     -93.560408     -99.492646     -99.492646      5.9322381    
    921000   2827.3246     -93.861514     -100.07434     -100.07434      6.2128267    
    922000   2743.1642     -93.112648     -99.140538     -99.140538      6.0278906    
    923000   2845.3392     -94.45775      -100.71016     -100.71016      6.2524123    
    924000   2743.5806     -93.649983     -99.678789     -99.678789      6.0288058    
    925000   2773.6491     -91.772248     -97.867127     -97.867127      6.0948789    
    926000   2842.261      -91.110918     -97.356566     -97.356566      6.2456482    
    927000   2707.282      -93.507242     -99.456284     -99.456284      5.9490424    
    928000   2853.1689     -94.338748     -100.60837     -100.60837      6.2696174    
    929000   2813.0843     -92.91892      -99.100455     -99.100455      6.1815347    
    930000   2880.3459     -91.538768     -97.868105     -97.868105      6.3293368    
    931000   2839.1242     -92.111061     -98.349816     -98.349816      6.2387553    
    932000   2638.2171     -92.490734     -98.288011     -98.288011      5.7972775    
    933000   2836.1438     -92.570892     -98.803098     -98.803098      6.2322061    
    934000   2755.1316     -93.323076     -99.377264     -99.377264      6.054188     
    935000   2752.5931     -91.782274     -97.830884     -97.830884      6.04861      
    936000   2839.6249     -94.447799     -100.68765     -100.68765      6.2398556    
    937000   2689.4019     -92.78609      -98.695842     -98.695842      5.9097521    
    938000   2821.0945     -92.955253     -99.15439      -99.15439       6.1991365    
    939000   2812.018      -92.643067     -98.822258     -98.822258      6.1791915    
    940000   2797.8645     -94.253506     -100.4016      -100.4016       6.1480902    
    941000   2883.8596     -92.888141     -99.225199     -99.225199      6.337058     
    942000   2934.0718     -95.404304     -101.8517      -101.8517       6.4473952    
    943000   2682.7365     -92.616848     -98.511954     -98.511954      5.8951055    
    944000   2837.0054     -95.531546     -101.76565     -101.76565      6.2340993    
    945000   2800.2822     -94.710896     -100.8643      -100.8643       6.1534031    
    946000   2950.094      -94.765936     -101.24854     -101.24854      6.4826028    
    947000   2728.7721     -93.340717     -99.336983     -99.336983      5.9962652    
    948000   2833.2194     -94.102559     -100.32834     -100.32834      6.2257799    
    949000   2802.9437     -93.84014      -99.999391     -99.999391      6.1592514    
    950000   2850.8601     -95.205299     -101.46984     -101.46984      6.264544     
    951000   2884.162      -94.193708     -100.53143     -100.53143      6.3377224    
    952000   2915.0576     -95.279629     -101.68524     -101.68524      6.4056131    
    953000   2950.5598     -95.314013     -101.79764     -101.79764      6.4836264    
    954000   2824.1384     -94.751142     -100.95697     -100.95697      6.2058252    
    955000   2909.2797     -95.54984      -101.94276     -101.94276      6.3929166    
    956000   2674.5585     -94.207151     -100.08429     -100.08429      5.877135     
    957000   2840.6882     -94.913986     -101.15618     -101.15618      6.242192     
    958000   2906.4992     -93.582675     -99.969482     -99.969482      6.3868067    
    959000   2822.9865     -93.798483     -100.00178     -100.00178      6.203294     
    960000   2829.0518     -94.92449      -101.14111     -101.14111      6.2166219    
    961000   2954.0771     -94.881241     -101.3726      -101.3726       6.4913553    
    962000   2922.963      -95.00464      -101.42762     -101.42762      6.4229846    
    963000   2866.4908     -95.042571     -101.34146     -101.34146      6.2988913    
    964000   2945.8014     -93.718521     -100.19169     -100.19169      6.4731702    
    965000   2988.2119     -88.409479     -94.975843     -94.975843      6.5663639    
    966000   2948.7455     -91.715313     -98.194953     -98.194953      6.4796397    
    967000   2914.7588     -93.647416     -100.05237     -100.05237      6.4049565    
    968000   2806.3113     -93.259778     -99.426429     -99.426429      6.1666516    
    969000   3041.4971     -91.080943     -97.764397     -97.764397      6.6834541    
    970000   2974.8647     -94.8313       -101.36833     -101.36833      6.5370344    
    971000   2828.998      -92.943753     -99.160257     -99.160257      6.2165038    
    972000   2910.3638     -92.173826     -98.569125     -98.569125      6.3952988    
    973000   2894.7083     -93.473408     -99.834305     -99.834305      6.3608971    
    974000   2944.3275     -92.22706      -98.696991     -98.696991      6.4699314    
    975000   2934.6804     -92.761877     -99.210609     -99.210609      6.4487327    
    976000   2985.3994     -94.788395     -101.34858     -101.34858      6.5601837    
    977000   2812.1636     -94.437894     -100.61741     -100.61741      6.1795114    
    978000   2974.7744     -94.145765     -100.6826      -100.6826       6.536836     
    979000   3062.534      -93.949929     -100.67961     -100.67961      6.7296811    
    980000   3060.8534     -95.423547     -102.14954     -102.14954      6.725988     
    981000   2967.4451     -92.774513     -99.295243     -99.295243      6.5207306    
    982000   2984.3653     -95.198784     -101.7567      -101.7567       6.5579114    
    983000   2775.3443     -90.784736     -96.88334      -96.88334       6.098604     
    984000   2839.3051     -92.874087     -99.11324      -99.11324       6.2391528    
    985000   2940.4656     -93.128408     -99.589853     -99.589853      6.4614453    
    986000   2850.4812     -91.627473     -97.891185     -97.891185      6.2637115    
    987000   3012.984      -92.628699     -99.249497     -99.249497      6.6207988    
    988000   3237.6467     -92.695019     -99.809497     -99.809497      7.1144776    
    989000   2958.7545     -90.004551     -96.506184     -96.506184      6.5016336    
    990000   2893.6645     -92.500856     -98.859459     -98.859459      6.3586034    
    991000   2648.7877     -91.920205     -97.740711     -97.740711      5.8205057    
    992000   2981.9131     -91.090307     -97.64283      -97.64283       6.5525229    
    993000   3120.8937     -92.213252     -99.071174     -99.071174      6.857922     
    994000   3057.3388     -91.761624     -98.479889     -98.479889      6.718265     
    995000   3054.8287     -92.316153     -99.028902     -99.028902      6.7127492    
    996000   2900.8398     -95.028364     -101.40273     -101.40273      6.3743705    
    997000   2874.3192     -94.259831     -100.57592     -100.57592      6.3160937    
    998000   2960.0358     -93.171106     -99.675555     -99.675555      6.5044491    
    999000   2899.5821     -93.984187     -100.35579     -100.35579      6.3716069    
   1000000   3062.7491     -92.536516     -99.26667      -99.26667       6.7301537    
Loop time of 30.9649 on 1 procs for 1000000 steps with 18 atoms

Performance: 279.025 ns/day, 0.086 hours/ns, 32294.594 timesteps/s, 581.303 katom-step/s
99.0% CPU use with 1 MPI tasks x 1 OpenMP threads

MPI task timing breakdown:
Section |  min time  |  avg time  |  max time  |%varavg| %total
---------------------------------------------------------------
Pair    | 25.749     | 25.749     | 25.749     |   0.0 | 83.15
Neigh   | 1.2225     | 1.2225     | 1.2225     |   0.0 |  3.95
Comm    | 0.74394    | 0.74394    | 0.74394    |   0.0 |  2.40
Output  | 0.26167    | 0.26167    | 0.26167    |   0.0 |  0.85
Modify  | 2.4768     | 2.4768     | 2.4768     |   0.0 |  8.00
Other   |            | 0.5115     |            |       |  1.65

Nlocal:             18 ave          18 max          18 min
Histogram: 1 0 0 0 0 0 0 0 0 0
Nghost:             78 ave          78 max          78 min
Histogram: 1 0 0 0 0 0 0 0 0 0
Neighs:              0 ave           0 max           0 min
Histogram: 1 0 0 0 0 0 0 0 0 0
FullNghs:          306 ave         306 max         306 min
Histogram: 1 0 0 0 0 0 0 0 0 0

Total # of neighbors = 306
Ave neighs/atom = 17
Neighbor list builds = 18551
Dangerous builds = 16
write_restart 	./endconf/endconf*1.restart
System init for write_restart ...

#==============Constant Temp Phase==================

# Minimize during the constant temperature phase
min_style       sd
minimize        1.0e-5 1.0e-7 500 1000
Per MPI rank memory allocation (min/avg/max) = 6.256 | 6.256 | 6.256 Mbytes
   Step          Temp          TotEng         E_pair         PotEng         KinEng    
   1000000   3062.7491     -92.536516     -99.26667      -99.26667       6.7301537    
   1000079   3062.7491     -98.619951     -105.35011     -105.35011      6.7301537    
Loop time of 0.0185846 on 1 procs for 79 steps with 18 atoms

42.7% CPU use with 1 MPI tasks x 1 OpenMP threads

Minimization stats:
  Stopping criterion = energy tolerance
  Energy initial, next-to-last, final = 
     -99.2666695268662  -105.349181164125  -105.350105133388
  Force two-norm initial, final = 21.689147 0.29723248
  Force max component initial, final = 8.5946507 0.10547278
  Final line search alpha, max atom move = 0.54471005 0.057452085
  Iterations, force evaluations = 79 156

MPI task timing breakdown:
Section |  min time  |  avg time  |  max time  |%varavg| %total
---------------------------------------------------------------
Pair    | 0.0075046  | 0.0075046  | 0.0075046  |   0.0 | 40.38
Neigh   | 0.0047949  | 0.0047949  | 0.0047949  |   0.0 | 25.80
Comm    | 0.00017878 | 0.00017878 | 0.00017878 |   0.0 |  0.96
Output  | 0          | 0          | 0          |   0.0 |  0.00
Modify  | 0          | 0          | 0          |   0.0 |  0.00
Other   |            | 0.006106   |            |       | 32.86

Nlocal:             18 ave          18 max          18 min
Histogram: 1 0 0 0 0 0 0 0 0 0
Nghost:             82 ave          82 max          82 min
Histogram: 1 0 0 0 0 0 0 0 0 0
Neighs:              0 ave           0 max           0 min
Histogram: 1 0 0 0 0 0 0 0 0 0
FullNghs:          306 ave         306 max         306 min
Histogram: 1 0 0 0 0 0 0 0 0 0

Total # of neighbors = 306
Ave neighs/atom = 17
Neighbor list builds = 28
Dangerous builds = 0

unfix 			2
fix 			4 all temp/berendsen ${tempchauf} ${tempchauf} ${Tdamp}
fix 			4 all temp/berendsen 3000 ${tempchauf} ${Tdamp}
fix 			4 all temp/berendsen 3000 3000 ${Tdamp}
fix 			4 all temp/berendsen 3000 3000 0.001

run 			${iterther}
run 			100000
Per MPI rank memory allocation (min/avg/max) = 5.131 | 5.131 | 5.131 Mbytes
   Step          Temp          TotEng         E_pair         PotEng         KinEng    
   1000079   3062.7491     -98.619951     -105.35011     -105.35011      6.7301537    
   1001000   2801.9717     -91.839585     -97.996701     -97.996701      6.1571155    
   1002000   3056.6868     -93.118306     -99.835138     -99.835138      6.7168323    
   1003000   3098.2796     -92.585206     -99.393436     -99.393436      6.8082292    
   1004000   3077.9343     -94.576815     -101.34034     -101.34034      6.7635219    
   1005000   2951.9115     -93.051079     -99.537675     -99.537675      6.4865967    
   1006000   3007.383      -92.559796     -99.168287     -99.168287      6.608491     
   1007000   2975.7984     -90.004569     -96.543655     -96.543655      6.5390861    
   1008000   2973.1338     -92.539534     -99.072765     -99.072765      6.5332309    
   1009000   2892.2098     -92.583264     -98.938671     -98.938671      6.3554069    
   1010000   2982.6374     -93.726156     -100.28027     -100.28027      6.5541144    
   1011000   3034.9151     -92.640663     -99.309654     -99.309654      6.6689905    
   1012000   3118.9455     -91.36535      -98.218991     -98.218991      6.853641     
   1013000   2753.2204     -91.840239     -97.890228     -97.890228      6.0499884    
   1014000   2956.8811     -92.18183      -98.679347     -98.679347      6.497517     
   1015000   3064.8081     -90.635155     -97.369833     -97.369833      6.7346782    
   1016000   3141.2471     -92.393054     -99.295701     -99.295701      6.902647     
   1017000   3047.5933     -93.54425      -100.2411      -100.2411       6.6968501    
   1018000   2908.6349     -92.063094     -98.454593     -98.454593      6.3914996    
   1019000   2782.8339     -93.362202     -99.477264     -99.477264      6.1150617    
   1020000   2980.0482     -95.150938     -101.69936     -101.69936      6.5484248    
   1021000   3042.3308     -94.106186     -100.79147     -100.79147      6.685286     
   1022000   3060.1845     -92.792926     -99.517444     -99.517444      6.7245182    
   1023000   2910.0697     -93.190907     -99.58556      -99.58556       6.3946525    
   1024000   2838.0265     -93.57409      -99.810434     -99.810434      6.2363431    
   1025000   2949.6822     -93.848718     -100.33042     -100.33042      6.481698     
   1026000   3023.5649     -92.674437     -99.318487     -99.318487      6.6440495    
   1027000   3096.7402     -92.889799     -99.694646     -99.694646      6.8048466    
   1028000   2935.0261     -91.877087     -98.326579     -98.326579      6.4494923    
   1029000   2988.5433     -91.53812      -98.105212     -98.105212      6.5670921    
   1030000   2907.0805     -91.988376     -98.37646      -98.37646       6.3880841    
   1031000   3196.3064     -90.051191     -97.074827     -97.074827      7.0236356    
   1032000   3090.0619     -89.301868     -96.092039     -96.092039      6.7901714    
   1033000   3006.576      -91.450769     -98.057486     -98.057486      6.6067177    
   1034000   3068.7929     -92.351837     -99.095272     -99.095272      6.7434345    
   1035000   2839.8763     -92.439751     -98.680159     -98.680159      6.2404079    
   1036000   2911.8698     -91.846802     -98.24541      -98.24541       6.398608     
   1037000   2782.7879     -90.234132     -96.349093     -96.349093      6.1149607    
   1038000   3108.0814     -93.518943     -100.34871     -100.34871      6.829768     
   1039000   2984.9014     -93.004368     -99.563457     -99.563457      6.5590895    
   1040000   3055.3015     -92.0183       -98.732088     -98.732088      6.7137882    
   1041000   2988.2842     -94.45732      -101.02384     -101.02384      6.5665228    
   1042000   3114.2532     -91.014124     -97.857454     -97.857454      6.8433299    
   1043000   2938.1477     -92.322158     -98.77851      -98.77851       6.4563517    
   1044000   2921.2665     -90.378272     -96.797529     -96.797529      6.4192567    
   1045000   2848.6292     -93.21325      -99.472891     -99.472891      6.2596418    
   1046000   3116.2942     -90.919206     -97.767021     -97.767021      6.8478149    
   1047000   3007.8061     -92.372801     -98.982221     -98.982221      6.6094207    
   1048000   2989.8676     -93.146548     -99.71655      -99.71655       6.5700022    
   1049000   2929.9738     -93.373313     -99.811703     -99.811703      6.4383902    
   1050000   2976.5369     -91.217873     -97.758582     -97.758582      6.5407091    
   1051000   3053.636      -91.914873     -98.625001     -98.625001      6.7101284    
   1052000   3158.9694     -92.159399     -99.10099      -99.10099       6.9415904    
   1053000   2905.5351     -90.457944     -96.842632     -96.842632      6.3846881    
   1054000   2900.9892     -90.584396     -96.959095     -96.959095      6.3746988    
   1055000   3006.8386     -89.903455     -96.510749     -96.510749      6.6072946    
   1056000   3189.7183     -93.639478     -100.64864     -100.64864      7.0091587    
   1057000   2956.8366     -91.44494      -97.94236      -97.94236       6.4974192    
   1058000   3100.5343     -93.50639      -100.31957     -100.31957      6.8131836    
   1059000   2873.7274     -92.645015     -98.959808     -98.959808      6.3147931    
   1060000   3035.648      -94.504949     -101.17555     -101.17555      6.6706012    
   1061000   3044.9584     -91.558643     -98.249703     -98.249703      6.6910601    
   1062000   3062.8988     -92.294589     -99.025071     -99.025071      6.7304826    
   1063000   2977.9707     -92.203894     -98.747753     -98.747753      6.5438597    
   1064000   3009.4886     -93.209879     -99.822996     -99.822996      6.6131178    
   1065000   2880.5858     -90.553952     -96.883816     -96.883816      6.3298638    
   1066000   3124.1682     -90.921719     -97.786836     -97.786836      6.8651173    
   1067000   2996.1648     -92.755947     -99.339786     -99.339786      6.5838398    
   1068000   2923.7466     -91.994519     -98.419226     -98.419226      6.4247065    
   1069000   2979.2954     -92.458367     -99.005138     -99.005138      6.5467707    
   1070000   3011.1647     -91.527366     -98.144167     -98.144167      6.616801     
   1071000   3082.7906     -91.128849     -97.903042     -97.903042      6.7741933    
   1072000   2843.9544     -92.060486     -98.309855     -98.309855      6.2493694    
   1073000   3056.5958     -91.805441     -98.522073     -98.522073      6.7166322    
   1074000   2900.7934     -89.593775     -95.968043     -95.968043      6.3742685    
   1075000   3135.2244     -92.270197     -99.159609     -99.159609      6.8894125    
   1076000   3090.5543     -93.498192     -100.28945     -100.28945      6.7912534    
   1077000   2985.7277     -91.538179     -98.099085     -98.099085      6.5609052    
   1078000   2992.7526     -91.875739     -98.452081     -98.452081      6.5763418    
   1079000   3017.3799     -94.11464      -100.7451      -100.7451       6.6304584    
   1080000   3068.7205     -93.210828     -99.954103     -99.954103      6.7432754    
   1081000   3106.4724     -92.834291     -99.660523     -99.660523      6.8262323    
   1082000   3082.4019     -92.523277     -99.296616     -99.296616      6.7733391    
   1083000   3130.3117     -92.037235     -98.915852     -98.915852      6.8786172    
   1084000   3155.1684     -92.48049      -99.413728     -99.413728      6.9332379    
   1085000   3076.0211     -90.006313     -96.76563      -96.76563       6.7593179    
   1086000   2902.0893     -90.686211     -97.063327     -97.063327      6.3771162    
   1087000   2910.5573     -93.144152     -99.539876     -99.539876      6.395724     
   1088000   3004.7051     -94.153251     -100.75586     -100.75586      6.6026065    
   1089000   3035.9023     -93.371776     -100.04294     -100.04294      6.6711599    
   1090000   2945.1801     -93.021243     -99.493048     -99.493048      6.4718049    
   1091000   3030.7662     -93.067778     -99.727652     -99.727652      6.6598738    
   1092000   3022.7328     -92.86186      -99.504081     -99.504081      6.6422209    
   1093000   3120.0775     -92.013214     -98.869342     -98.869342      6.8561285    
   1094000   3050.264      -91.329481     -98.0322       -98.0322        6.7027186    
   1095000   3029.3455     -94.014578     -100.67133     -100.67133      6.6567518    
   1096000   2857.4595     -93.052483     -99.331529     -99.331529      6.2790456    
   1097000   2989.8245     -89.59625      -96.166157     -96.166157      6.5699074    
   1098000   3023.0904     -94.125743     -100.76875     -100.76875      6.6430067    
   1099000   2947.1165     -89.611679     -96.087739     -96.087739      6.4760601    
   1100000   2954.169      -92.640192     -99.13175      -99.13175       6.4915573    
   1100079   2965.0051     -93.803407     -100.31878     -100.31878      6.5153688    
Loop time of 5.15333 on 1 procs for 100000 steps with 18 atoms

Performance: 167.659 ns/day, 0.143 hours/ns, 19404.933 timesteps/s, 349.289 katom-step/s
99.4% CPU use with 1 MPI tasks x 1 OpenMP threads

MPI task timing breakdown:
Section |  min time  |  avg time  |  max time  |%varavg| %total
---------------------------------------------------------------
Pair    | 4.5895     | 4.5895     | 4.5895     |   0.0 | 89.06
Neigh   | 0.17431    | 0.17431    | 0.17431    |   0.0 |  3.38
Comm    | 0.070255   | 0.070255   | 0.070255   |   0.0 |  1.36
Output  | 0.0225     | 0.0225     | 0.0225     |   0.0 |  0.44
Modify  | 0.24438    | 0.24438    | 0.24438    |   0.0 |  4.74
Other   |            | 0.0524     |            |       |  1.02

Nlocal:             18 ave          18 max          18 min
Histogram: 1 0 0 0 0 0 0 0 0 0
Nghost:             74 ave          74 max          74 min
Histogram: 1 0 0 0 0 0 0 0 0 0
Neighs:              0 ave           0 max           0 min
Histogram: 1 0 0 0 0 0 0 0 0 0
FullNghs:          306 ave         306 max         306 min
Histogram: 1 0 0 0 0 0 0 0 0 0

Total # of neighbors = 306
Ave neighs/atom = 17
Neighbor list builds = 2707
Dangerous builds = 0
write_restart 	./endconf/endconf*2.restart
System init for write_restart ...

#=================Cooling Phase=====================

# Re-minimize before cooling
#min_style       sd
#minimize        1.0e-5 1.0e-7 500 1000

unfix 			4
fix 			5 all temp/berendsen ${tempchauf} 0.0 ${Tdamp}
fix 			5 all temp/berendsen 3000 0.0 ${Tdamp}
fix 			5 all temp/berendsen 3000 0.0 0.001

run 			${iter}
run 			1000000
Per MPI rank memory allocation (min/avg/max) = 5.131 | 5.131 | 5.131 Mbytes
   Step          Temp          TotEng         E_pair         PotEng         KinEng    
   1100079   2965.0051     -93.803407     -100.31878     -100.31878      6.5153688    
   1101000   3076.6217     -91.340114     -98.100752     -98.100752      6.7606376    
   1102000   2997.6755     -92.399951     -98.987111     -98.987111      6.5871596    
   1103000   3084.2828     -93.938038     -100.71551     -100.71551      6.7774724    
   1104000   3146.6996     -92.761003     -99.675631     -99.675631      6.9146285    
   1105000   3024.5916     -93.197218     -99.843524     -99.843524      6.6463054    
   1106000   2964.1257     -89.447057     -95.960494     -95.960494      6.5134364    
   1107000   2802.8072     -93.074306     -99.233257     -99.233257      6.1589515    
   1108000   3046.9925     -92.764752     -99.460281     -99.460281      6.6955297    
   1109000   2887.407      -91.236771     -97.581624     -97.581624      6.3448531    
   1110000   2984.8976     -90.353399     -96.91248      -96.91248       6.559081     
   1111000   2886.9537     -91.154466     -97.498323     -97.498323      6.3438569    
   1112000   2915.8631     -93.279767     -99.68715      -99.68715       6.407383     
   1113000   2917.1486     -94.543992     -100.9542      -100.9542       6.410208     
   1114000   2999.8023     -92.618114     -99.209947     -99.209947      6.591833     
   1115000   2990.8527     -92.381995     -98.954162     -98.954162      6.5721669    
   1116000   2904.6503     -91.696959     -98.079702     -98.079702      6.3827439    
   1117000   3010.8092     -93.328508     -99.944528     -99.944528      6.6160197    
   1118000   3000.886      -91.382871     -97.977085     -97.977085      6.5942142    
   1119000   2923.5127     -92.512488     -98.936681     -98.936681      6.4241925    
   1120000   2962.4017     -94.292073     -100.80172     -100.80172      6.5096482    
   1121000   2979.124      -91.894717     -98.441111     -98.441111      6.5463939    
   1122000   2885.9097     -93.998653     -100.34022     -100.34022      6.3415628    
   1123000   2833.9632     -93.533388     -99.760803     -99.760803      6.2274144    
   1124000   2849.6069     -92.529618     -98.791409     -98.791409      6.2617903    
   1125000   2860.8058     -93.355924     -99.642323     -99.642323      6.286399     
   1126000   2960.019      -92.062915     -98.567327     -98.567327      6.5044122    
   1127000   2994.1582     -91.282508     -97.861938     -97.861938      6.5794306    
   1128000   2863.9077     -94.473376     -100.76659     -100.76659      6.2932152    
   1129000   3049.9072     -92.531306     -99.233241     -99.233241      6.7019346    
   1130000   2791.8805     -91.138698     -97.273639     -97.273639      6.1349409    
   1131000   3027.6129     -89.292578     -95.945523     -95.945523      6.6529446    
   1132000   2947.9945     -91.930699     -98.408689     -98.408689      6.4779894    
   1133000   2861.9773     -93.295681     -99.584654     -99.584654      6.2889731    
   1134000   2909.7189     -92.987081     -99.380963     -99.380963      6.3938818    
   1135000   2959.4102     -92.945678     -99.448753     -99.448753      6.5030744    
   1136000   2887.3328     -92.232917     -98.577607     -98.577607      6.3446899    
   1137000   2883.548      -93.350896     -99.687269     -99.687269      6.3363732    
   1138000   2845.6334     -95.817722     -102.07078     -102.07078      6.2530587    
   1139000   2901.7143     -94.599796     -100.97609     -100.97609      6.3762921    
   1140000   2949.532      -94.542265     -101.02363     -101.02363      6.4813678    
   1141000   2882.8005     -93.231536     -99.566266     -99.566266      6.3347306    
   1142000   2789.1158     -95.799983     -101.92885     -101.92885      6.1288656    
   1143000   2772.8121     -91.750223     -97.843263     -97.843263      6.0930396    
   1144000   2820.0606     -92.526185     -98.723049     -98.723049      6.1968645    
   1145000   2819.2932     -92.662254     -98.857432     -98.857432      6.1951782    
   1146000   2962.2834     -90.915532     -97.42492      -97.42492       6.509388     
   1147000   2918.0267     -93.067587     -99.479725     -99.479725      6.4121373    
   1148000   2929.0601     -91.825687     -98.26207      -98.26207       6.4363826    
   1149000   2844.2555     -93.003953     -99.253984     -99.253984      6.250031     
   1150000   2888.6403     -92.09053      -98.438093     -98.438093      6.3475632    
   1151000   2732.2726     -91.024351     -97.028308     -97.028308      6.0039573    
   1152000   2793.3808     -92.651154     -98.789392     -98.789392      6.1382376    
   1153000   2995.8779     -91.690755     -98.273964     -98.273964      6.5832094    
   1154000   2769.7983     -93.003291     -99.089708     -99.089708      6.086417     
   1155000   2816.4382     -93.91178      -100.10068     -100.10068      6.1889046    
   1156000   2858.7922     -92.810429     -99.092403     -99.092403      6.2819743    
   1157000   2924.9119     -95.132702     -101.55997     -101.55997      6.4272671    
   1158000   2849.4859     -92.815977     -99.077501     -99.077501      6.2615243    
   1159000   2715.6712     -94.53131      -100.49879     -100.49879      5.9674768    
   1160000   2763.3488     -92.767589     -98.839834     -98.839834      6.0722448    
   1161000   2783.7447     -93.57031      -99.687373     -99.687373      6.1170631    
   1162000   2793.273      -94.694258     -100.83226     -100.83226      6.1380008    
   1163000   2853.0022     -91.169278     -97.43853      -97.43853       6.2692512    
   1164000   2884.5176     -92.142493     -98.480996     -98.480996      6.3385037    
   1165000   2947.8078     -89.718854     -96.196433     -96.196433      6.4775791    
   1166000   2849.8476     -94.760011     -101.02233     -101.02233      6.2623191    
   1167000   2757.4478     -91.338436     -97.397714     -97.397714      6.0592778    
   1168000   2894.0017     -91.84928      -98.208624     -98.208624      6.3593443    
   1169000   2854.2666     -91.983745     -98.255775     -98.255775      6.2720296    
   1170000   2603.6307     -90.992402     -96.713679     -96.713679      5.7212766    
   1171000   2684.3442     -91.929226     -97.827864     -97.827864      5.8986383    
   1172000   2787.531      -93.684572     -99.809956     -99.809956      6.1253833    
   1173000   2875.05       -90.853663     -97.171362     -97.171362      6.3176994    
   1174000   2689.7462     -91.55321      -97.463718     -97.463718      5.9105087    
   1175000   2805.5583     -92.813526     -98.978523     -98.978523      6.1649968    
   1176000   2758.4407     -93.275717     -99.337177     -99.337177      6.0614596    
   1177000   2876.419      -92.600777     -98.921484     -98.921484      6.3207077    
   1178000   2852.5521     -91.630786     -97.899048     -97.899048      6.268262     
   1179000   2667.0226     -92.633889     -98.494464     -98.494464      5.8605754    
   1180000   2715.4576     -93.489645     -99.456653     -99.456653      5.9670075    
   1181000   2780.2596     -92.14         -98.249405     -98.249405      6.1094049    
   1182000   2636.3978     -91.18049      -96.97377      -96.97377       5.7932798    
   1183000   2906.0648     -93.4806       -99.866452     -99.866452      6.385852     
   1184000   2848.6283     -92.875052     -99.134692     -99.134692      6.2596398    
   1185000   2700.4915     -93.099959     -99.03408      -99.03408       5.9341207    
   1186000   2782.4584     -92.769727     -98.883964     -98.883964      6.1142366    
   1187000   2785.0565     -91.769396     -97.889342     -97.889342      6.1199458    
   1188000   2733.0081     -91.563553     -97.569126     -97.569126      6.0055734    
   1189000   2789.5321     -92.471137     -98.600917     -98.600917      6.1297804    
   1190000   2679.5739     -92.356691     -98.244847     -98.244847      5.8881558    
   1191000   2840.6462     -93.139909     -99.382009     -99.382009      6.2420998    
   1192000   2840.9587     -91.800356     -98.043143     -98.043143      6.2427864    
   1193000   2689.3277     -91.807888     -97.717478     -97.717478      5.9095891    
   1194000   2772.3069     -93.809161     -99.901091     -99.901091      6.0919294    
   1195000   2840.2723     -93.498661     -99.739939     -99.739939      6.2412781    
   1196000   2748.5562     -93.087208     -99.126948     -99.126948      6.0397391    
   1197000   2718.7674     -92.206187     -98.180467     -98.180467      5.9742806    
   1198000   2651.7758     -90.660568     -96.48764      -96.48764       5.8270716    
   1199000   2688.2024     -94.479852     -100.38697     -100.38697      5.9071164    
   1200000   2767.8117     -92.228473     -98.310525     -98.310525      6.0820516    
   1201000   2768.4766     -93.833831     -99.917343     -99.917343      6.0835128    
   1202000   2849.503      -92.512324     -98.773886     -98.773886      6.261562     
   1203000   2718.5007     -94.285051     -100.25875     -100.25875      5.9736946    
   1204000   2580.1043     -95.263162     -100.93274     -100.93274      5.6695791    
   1205000   2648.6062     -90.932133     -96.75224      -96.75224       5.8201068    
   1206000   2650.7864     -93.46327      -99.288167     -99.288167      5.8248975    
   1207000   2857.7712     -92.715035     -98.994766     -98.994766      6.2797306    
   1208000   2688.2071     -95.083539     -100.99067     -100.99067      5.9071266    
   1209000   2633.9985     -94.297314     -100.08532     -100.08532      5.7880075    
   1210000   2598.8773     -94.205999     -99.91683      -99.91683       5.7108314    
   1211000   2701.6944     -92.409238     -98.346001     -98.346001      5.9367639    
   1212000   2638.3047     -94.542602     -100.34007     -100.34007      5.79747      
   1213000   2552.0119     -93.240411     -98.84826      -98.84826       5.6078483    
   1214000   2632.7645     -93.998106     -99.783402     -99.783402      5.7852959    
   1215000   2684.7477     -93.972531     -99.872056     -99.872056      5.899525     
   1216000   2507.3559     -94.393213     -99.902933     -99.902933      5.5097201    
   1217000   2626.8705     -92.608297     -98.380641     -98.380641      5.7723442    
   1218000   2582.0398     -93.137053     -98.810885     -98.810885      5.6738323    
   1219000   2642.1176     -92.759262     -98.565111     -98.565111      5.8058485    
   1220000   2565.5527     -93.900095     -99.537698     -99.537698      5.6376031    
   1221000   2815.2014     -92.703814     -98.890001     -98.890001      6.1861867    
   1222000   2482.9871     -93.624595     -99.080767     -99.080767      5.4561717    
   1223000   2743.6927     -93.22774      -99.256792     -99.256792      6.0290519    
   1224000   2593.3908     -95.290366     -100.98914     -100.98914      5.6987751    
   1225000   2694.0706     -95.840728     -101.76074     -101.76074      5.9200112    
   1226000   2604.4125     -93.44205      -99.165044     -99.165044      5.7229945    
   1227000   2497.807      -92.839101     -98.327838     -98.327838      5.4887372    
   1228000   2546.7578     -92.584268     -98.180571     -98.180571      5.5963027    
   1229000   2728.2156     -93.779252     -99.774294     -99.774294      5.9950423    
   1230000   2702.2863     -92.927186     -98.865251     -98.865251      5.9380646    
   1231000   2688.4619     -93.926626     -99.834313     -99.834313      5.9076866    
   1232000   2581.6731     -92.402814     -98.07584      -98.07584       5.6730265    
   1233000   2623.9307     -94.265218     -100.0311      -100.0311       5.7658843    
   1234000   2690.1907     -91.193217     -97.104703     -97.104703      5.9114856    
   1235000   2496.0097     -94.512229     -99.997017     -99.997017      5.4847879    
   1236000   2616.9927     -93.778761     -99.5294       -99.5294        5.7506386    
   1237000   2672.5724     -94.163136     -100.03591     -100.03591      5.8727707    
   1238000   2597.1126     -93.51791      -99.224864     -99.224864      5.7069535    
   1239000   2684.7521     -93.425261     -99.324795     -99.324795      5.8995346    
   1240000   2505.0598     -92.950962     -98.455636     -98.455636      5.5046746    
   1241000   2544.8867     -93.671224     -99.263415     -99.263415      5.5921911    
   1242000   2597.5685     -94.839568     -100.54752     -100.54752      5.7079554    
   1243000   2633.7052     -94.271908     -100.05927     -100.05927      5.787363     
   1244000   2622.9151     -95.250631     -101.01428     -101.01428      5.7636526    
   1245000   2523.1672     -95.735849     -101.28031     -101.28031      5.5444643    
   1246000   2522.6044     -94.491387     -100.03461     -100.03461      5.5432275    
   1247000   2631.4048     -94.425656     -100.20796     -100.20796      5.7823079    
   1248000   2597.8947     -94.768338     -100.47701     -100.47701      5.7086722    
   1249000   2644.0318     -95.131899     -100.94195     -100.94195      5.810055     
   1250000   2726.6168     -94.023778     -100.01531     -100.01531      5.991529     
   1251000   2491.6906     -94.183072     -99.658369     -99.658369      5.4752969    
   1252000   2557.4428     -94.325729     -99.945511     -99.945511      5.6197822    
   1253000   2622.1208     -95.980079     -101.74199     -101.74199      5.7619071    
   1254000   2598.8317     -92.431339     -98.14207      -98.14207       5.7107311    
   1255000   2399.4451     -95.65         -100.92259     -100.92259      5.2725946    
   1256000   2704.8718     -94.359907     -100.30365     -100.30365      5.9437461    
   1257000   2507.7772     -94.983663     -100.49431     -100.49431      5.5106459    
   1258000   2498.6937     -95.427805     -100.91849     -100.91849      5.4906857    
   1259000   2434.7413     -95.643341     -100.9935      -100.9935       5.3501552    
   1260000   2488.5075     -94.466237     -99.934539     -99.934539      5.4683023    
   1261000   2437.4871     -93.4578       -98.813989     -98.813989      5.356189     
   1262000   2523.5958     -94.312796     -99.858202     -99.858202      5.5454062    
   1263000   2446.0889     -95.849245     -101.22434     -101.22434      5.3750908    
   1264000   2550.4274     -92.429379     -98.033746     -98.033746      5.6043664    
   1265000   2581.2071     -94.048457     -99.720459     -99.720459      5.6720024    
   1266000   2493.214      -95.375428     -100.85407     -100.85407      5.4786443    
   1267000   2527.5381     -93.089525     -98.643594     -98.643594      5.5540689    
   1268000   2473.5268     -93.746584     -99.181968     -99.181968      5.4353834    
   1269000   2466.0462     -93.555552     -98.974498     -98.974498      5.4189453    
   1270000   2433.2135     -93.600243     -98.947041     -98.947041      5.346798     
   1271000   2511.3558     -93.057052     -98.575562     -98.575562      5.5185097    
   1272000   2547.689      -95.151101     -100.74945     -100.74945      5.598349     
   1273000   2425.6754     -94.011864     -99.342098     -99.342098      5.3302337    
   1274000   2460.1189     -95.558559     -100.96448     -100.96448      5.4059205    
   1275000   2499.6139     -94.865597     -100.3583      -100.3583       5.4927078    
   1276000   2400.0225     -95.933062     -101.20693     -101.20693      5.2738634    
   1277000   2538.385      -96.354922     -101.93283     -101.93283      5.5779041    
   1278000   2482.9036     -94.740244     -100.19623     -100.19623      5.4559881    
   1279000   2577.7802     -92.096106     -97.760578     -97.760578      5.6644721    
   1280000   2441.929      -94.818173     -100.18412     -100.18412      5.3659496    
   1281000   2575.7123     -96.631003     -102.29093     -102.29093      5.6599282    
   1282000   2512.0135     -94.740095     -100.26005     -100.26005      5.5199548    
   1283000   2429.2607     -96.387788     -101.7259      -101.7259       5.3381119    
   1284000   2467.9301     -93.719748     -99.142833     -99.142833      5.4230851    
   1285000   2489.478      -96.495273     -101.96571     -101.96571      5.4704348    
   1286000   2487.7867     -95.680002     -101.14672     -101.14672      5.4667184    
   1287000   2591.0017     -93.69565      -99.389175     -99.389175      5.6935254    
   1288000   2293.4872     -95.10004      -100.1398      -100.1398       5.0397604    
   1289000   2499.604      -94.761212     -100.2539      -100.2539       5.4926861    
   1290000   2451.799      -94.919571     -100.30721     -100.30721      5.3876381    
   1291000   2297.7053     -92.853282     -97.902311     -97.902311      5.0490292    
   1292000   2450.7357     -93.615595     -99.000897     -99.000897      5.3853017    
   1293000   2318.4716     -92.770905     -97.865567     -97.865567      5.0946616    
   1294000   2295.8841     -95.07131      -100.11634     -100.11634      5.0450273    
   1295000   2367.1766     -95.802494     -101.00418     -101.00418      5.2016871    
   1296000   2419.0821     -93.690847     -99.006592     -99.006592      5.3157453    
   1297000   2413.9217     -94.595472     -99.899878     -99.899878      5.3044059    
   1298000   2393.5579     -94.06761      -99.327268     -99.327268      5.2596578    
   1299000   2172.207      -94.47093      -99.244186     -99.244186      4.7732564    
   1300000   2357.5228     -94.774866     -99.95534      -99.95534       5.1804735    
   1301000   2430.106      -94.47481      -99.814779     -99.814779      5.3399695    
   1302000   2453.2039     -95.886817     -101.27754     -101.27754      5.3907253    
   1303000   2431.5871     -94.891909     -100.23513     -100.23513      5.3432241    
   1304000   2423.7068     -93.840025     -99.165933     -99.165933      5.3259077    
   1305000   2347.2955     -95.485728     -100.64373     -100.64373      5.1579999    
   1306000   2508.0267     -95.653307     -101.1645      -101.1645       5.5111943    
   1307000   2436.9574     -95.304927     -100.65995     -100.65995      5.3550249    
   1308000   2454.0817     -95.369598     -100.76225     -100.76225      5.3926543    
   1309000   2349.3862     -95.772983     -100.93558     -100.93558      5.162594     
   1310000   2307.5114     -94.651262     -99.721839     -99.721839      5.0705774    
   1311000   2388.3762     -96.06809      -101.31636     -101.31636      5.2482715    
   1312000   2373.3507     -94.889989     -100.10524     -100.10524      5.2152541    
   1313000   2378.0324     -96.574528     -101.80007     -101.80007      5.2255419    
   1314000   2261.9005     -96.795093     -101.76544     -101.76544      4.970351     
   1315000   2453.9155     -92.35744      -97.749729     -97.749729      5.392289     
   1316000   2309.6145     -95.366167     -100.44137     -100.44137      5.0751987    
   1317000   2332.2894     -96.752349     -101.87737     -101.87737      5.125025     
   1318000   2495.3481     -92.763684     -98.247018     -98.247018      5.483334     
   1319000   2266.8421     -94.165323     -99.146533     -99.146533      4.9812097    
   1320000   2262.5715     -95.028079     -99.999904     -99.999904      4.9718254    
   1321000   2277.4119     -94.141194     -99.14563      -99.14563       5.004436     
   1322000   2424.6305     -95.663403     -100.99134     -100.99134      5.3279376    
   1323000   2296.0654     -94.302518     -99.347943     -99.347943      5.0454256    
   1324000   2211.0322     -95.878252     -100.73682     -100.73682      4.8585718    
   1325000   2368.2185     -93.879692     -99.083668     -99.083668      5.2039766    
   1326000   2393.7694     -95.908604     -101.16873     -101.16873      5.2601228    
   1327000   2358.3868     -95.347096     -100.52947     -100.52947      5.1823722    
   1328000   2320.967      -94.486306     -99.586451     -99.586451      5.100145     
   1329000   2202.3251     -95.234327     -100.07377     -100.07377      4.8394387    
   1330000   2224.7357     -95.451311     -100.33999     -100.33999      4.8886842    
   1331000   2357.7247     -94.443917     -99.624834     -99.624834      5.1809173    
   1332000   2284.94       -94.984477     -100.00546     -100.00546      5.0209785    
   1333000   2245.935      -96.002551     -100.93782     -100.93782      4.935268     
   1334000   2208.5332     -94.813658     -99.666739     -99.666739      4.8530806    
   1335000   2374.0087     -93.906346     -99.123046     -99.123046      5.2167001    
   1336000   2269.5769     -95.109088     -100.09631     -100.09631      4.9872193    
   1337000   2314.7086     -95.107316     -100.19371     -100.19371      5.0863927    
   1338000   2275.5964     -95.214642     -100.21509     -100.21509      5.0004467    
   1339000   2265.2807     -95.95126      -100.92904     -100.92904      4.9777787    
   1340000   2307.0987     -95.251535     -100.3212      -100.3212       5.0696704    
   1341000   2201.804      -94.721577     -99.55987      -99.55987       4.8382935    
   1342000   2315.8348     -94.497084     -99.585951     -99.585951      5.0888675    
   1343000   2428.6096     -94.614829     -99.95151      -99.95151       5.3366812    
   1344000   2282.802      -95.106944     -100.12322     -100.12322      5.0162803    
   1345000   2396.545      -96.043661     -101.30988     -101.30988      5.2662217    
   1346000   2358.3618     -94.975419     -100.15774     -100.15774      5.1823171    
   1347000   2295.7759     -95.91842      -100.96321     -100.96321      5.0447896    
   1348000   2281.5221     -95.943084     -100.95655     -100.95655      5.013468     
   1349000   2173.0044     -96.172973     -100.94798     -100.94798      4.7750086    
   1350000   2278.2744     -95.114845     -100.12118     -100.12118      5.0063314    
   1351000   2243.8787     -94.078514     -99.009264     -99.009264      4.9307494    
   1352000   2270.1233     -94.340787     -99.329207     -99.329207      4.98842      
   1353000   2278.2539     -95.963324     -100.96961     -100.96961      5.0062863    
   1354000   2315.3745     -92.826927     -97.914783     -97.914783      5.087856     
   1355000   2038.7164     -93.735052     -98.214973     -98.214973      4.4799213    
   1356000   2197.5848     -94.953828     -99.78285      -99.78285       4.8290223    
   1357000   2067.5856     -92.209714     -96.753073     -96.753073      4.543359     
   1358000   2210.5208     -94.895828     -99.753276     -99.753276      4.8574481    
   1359000   2185.3923     -95.531256     -100.33349     -100.33349      4.8022302    
   1360000   2245.8534     -95.435477     -100.37057     -100.37057      4.9350886    
   1361000   2196.1337     -94.508799     -99.334632     -99.334632      4.8258334    
   1362000   2104.1655     -95.020982     -99.644722     -99.644722      4.6237405    
   1363000   2222.1853     -96.43461      -101.31769     -101.31769      4.8830798    
   1364000   2264.5406     -94.506239     -99.482391     -99.482391      4.9761524    
   1365000   2147.7768     -96.017814     -100.73739     -100.73739      4.719573     
   1366000   2133.0915     -95.199774     -99.887077     -99.887077      4.6873031    
   1367000   2094.0297     -96.872464     -101.47393     -101.47393      4.6014678    
   1368000   2180.3831     -95.65101      -100.44223     -100.44223      4.7912228    
   1369000   2241.9615     -95.439423     -100.36596     -100.36596      4.9265366    
   1370000   2170.013      -94.971548     -99.739983     -99.739983      4.7684354    
   1371000   2158.6707     -97.135171     -101.87868     -101.87868      4.7435115    
   1372000   2059.6148     -95.687179     -100.21302     -100.21302      4.5258437    
   1373000   2153.3791     -95.954298     -100.68618     -100.68618      4.7318837    
   1374000   2181.1106     -96.072538     -100.86536     -100.86536      4.7928215    
   1375000   2182.8354     -95.540836     -100.33745     -100.33745      4.7966115    
   1376000   2220.9219     -96.865373     -101.74568     -101.74568      4.8803037    
   1377000   2185.1347     -94.291871     -99.093535     -99.093535      4.801664     
   1378000   2187.9674     -94.900907     -99.708795     -99.708795      4.8078886    
   1379000   2193.7049     -95.426597     -100.24709     -100.24709      4.8204965    
   1380000   2203.5974     -97.203703     -102.04594     -102.04594      4.8422345    
   1381000   2060.8935     -97.329822     -101.85848     -101.85848      4.5286537    
   1382000   2075.9825     -96.283431     -100.84524     -100.84524      4.5618105    
   1383000   2112.2299     -95.737782     -100.37924     -100.37924      4.6414614    
   1384000   2048.6422     -94.678713     -99.180446     -99.180446      4.5017323    
   1385000   2016.4387     -94.382948     -98.813916     -98.813916      4.4309678    
   1386000   2009.1772     -94.787077     -99.202088     -99.202088      4.4150112    
   1387000   2032.4553     -95.407712     -99.873875     -99.873875      4.4661628    
   1388000   2297.4384     -96.324654     -101.3731      -101.3731       5.0484428    
   1389000   2155.0058     -95.895891     -100.63135     -100.63135      4.7354582    
   1390000   2085.8768     -95.926352     -100.50991     -100.50991      4.5835526    
   1391000   2106.3472     -95.708159     -100.33669     -100.33669      4.6285347    
   1392000   2162.7925     -96.330542     -101.08311     -101.08311      4.7525688    
   1393000   2080.2428     -95.119643     -99.690816     -99.690816      4.5711723    
   1394000   2053.3849     -95.06825      -99.580404     -99.580404      4.512154     
   1395000   2095.9119     -97.283088     -101.88869     -101.88869      4.6056038    
   1396000   2178.8574     -94.474285     -99.262155     -99.262155      4.7878702    
   1397000   2173.9147     -95.921765     -100.69877     -100.69877      4.777009     
   1398000   2047.5702     -95.11846      -99.617837     -99.617837      4.4993767    
   1399000   2111.6366     -96.759892     -101.40005     -101.40005      4.6401577    
   1400000   2103.4525     -96.142189     -100.76436     -100.76436      4.6221738    
   1401000   2120.9761     -96.988965     -101.64965     -101.64965      4.6606805    
   1402000   2118.9129     -96.310859     -100.96701     -100.96701      4.6561468    
   1403000   2090.934      -96.712053     -101.30672     -101.30672      4.5946654    
   1404000   2120.5727     -95.377562     -100.03736     -100.03736      4.659794     
   1405000   2192.6508     -95.410365     -100.22854     -100.22854      4.8181801    
   1406000   2043.6259     -95.899394     -100.3901      -100.3901       4.4907094    
   1407000   2096.2337     -95.326282     -99.932593     -99.932593      4.606311     
   1408000   2042.8943     -96.086229     -100.57533     -100.57533      4.4891019    
   1409000   2109.9751     -96.341866     -100.97837     -100.97837      4.6365068    
   1410000   2024.3258     -94.26176      -98.710059     -98.710059      4.448299     
   1411000   2167.5624     -94.958895     -99.721946     -99.721946      4.7630504    
   1412000   2160.4845     -96.864387     -101.61188     -101.61188      4.7474972    
   1413000   2006.529      -95.075547     -99.484739     -99.484739      4.4091919    
   1414000   2089.2031     -96.616401     -101.20726     -101.20726      4.5908617    
   1415000   2054.5848     -96.505886     -101.02068     -101.02068      4.5147907    
   1416000   1997.1295     -96.156896     -100.54543     -100.54543      4.3885372    
   1417000   1991.9044     -97.284737     -101.66179     -101.66179      4.3770556    
   1418000   2013.9217     -98.180498     -102.60593     -102.60593      4.4254367    
   1419000   2003.7121     -96.553638     -100.95664     -100.95664      4.403002     
   1420000   2106.4539     -96.964321     -101.59309     -101.59309      4.6287691    
   1421000   1955.5094     -96.084831     -100.38191     -100.38191      4.2970803    
   1422000   1940.1379     -95.696697     -99.96         -99.96          4.2633026    
   1423000   2051.1907     -97.829426     -102.33676     -102.33676      4.5073326    
   1424000   2156.8278     -97.157005     -101.89647     -101.89647      4.7394618    
   1425000   1978.4003     -97.16169      -101.50907     -101.50907      4.3473813    
   1426000   2041.3644     -97.695556     -102.1813      -102.1813       4.48574      
   1427000   1972.5034     -96.054604     -100.38903     -100.38903      4.3344234    
   1428000   2015.0923     -96.112668     -100.54068     -100.54068      4.4280091    
   1429000   1965.6627     -99.020513     -103.3399      -103.3399       4.3193914    
   1430000   2008.2585     -98.178068     -102.59106     -102.59106      4.4129923    
   1431000   2060.2998     -97.398099     -101.92545     -101.92545      4.5273491    
   1432000   2020.6132     -95.461215     -99.901356     -99.901356      4.4401408    
   1433000   2039.4534     -94.351994     -98.833535     -98.833535      4.4815408    
   1434000   1975.838      -96.804162     -101.14591     -101.14591      4.3417509    
   1435000   2012.4611     -97.335184     -101.75741     -101.75741      4.4222273    
   1436000   1938.1646     -96.883214     -101.14218     -101.14218      4.2589665    
   1437000   2080.2159     -95.891308     -100.46242     -100.46242      4.5711132    
   1438000   2069.3989     -97.334638     -101.88198     -101.88198      4.5473437    
   1439000   1940.1836     -96.52102      -100.78442     -100.78442      4.2634031    
   1440000   1939.5173     -95.850053     -100.11199     -100.11199      4.2619389    
   1441000   1915.4294     -95.107638     -99.316645     -99.316645      4.2090076    
   1442000   2002.0147     -95.373865     -99.773137     -99.773137      4.399272     
   1443000   1993.1314     -95.4183       -99.798052     -99.798052      4.3797518    
   1444000   2030.1702     -96.358408     -100.81955     -100.81955      4.4611416    
   1445000   2010.9306     -94.150565     -98.569429     -98.569429      4.4188641    
   1446000   2078.3364     -95.72814      -100.29512     -100.29512      4.5669831    
   1447000   2034.9237     -95.970501     -100.44209     -100.44209      4.4715871    
   1448000   2052.4969     -95.466629     -99.976832     -99.976832      4.5102029    
   1449000   1952.3879     -96.388915     -100.67914     -100.67914      4.290221     
   1450000   1884.5679     -96.832342     -100.97353     -100.97353      4.1411918    
   1451000   1954.7807     -95.674525     -99.970003     -99.970003      4.295479     
   1452000   1958.0157     -94.720226     -99.022813     -99.022813      4.3025876    
   1453000   1910.5775     -98.113079     -102.31143     -102.31143      4.198346     
   1454000   1965.0432     -98.737093     -103.05512     -103.05512      4.3180302    
   1455000   1938.8182     -98.271567     -102.53197     -102.53197      4.2604026    
   1456000   2035.2321     -96.700813     -101.17308     -101.17308      4.4722648    
   1457000   1986.5717     -97.542308     -101.90765     -101.90765      4.3653373    
   1458000   1771.2159     -96.653095     -100.5452      -100.5452       3.8921096    
   1459000   1856.9701     -96.756351     -100.8369      -100.8369       4.0805479    
   1460000   1964.6476     -98.406613     -102.72377     -102.72377      4.3171607    
   1461000   1897.8536     -98.190461     -102.36085     -102.36085      4.1703861    
   1462000   1933.6441     -98.653602     -102.90263     -102.90263      4.249033     
   1463000   1916.4037     -97.610281     -101.82143     -101.82143      4.2111485    
   1464000   1790.0513     -96.929227     -100.86273     -100.86273      3.9334988    
   1465000   1926.0873     -97.706686     -101.93911     -101.93911      4.2324276    
   1466000   1922.806      -97.90032      -102.12554     -102.12554      4.2252171    
   1467000   1899.8174     -97.452242     -101.62694     -101.62694      4.1747015    
   1468000   1936.5413     -97.391096     -101.6465      -101.6465       4.2553994    
   1469000   1859.6315     -97.136733     -101.22313     -101.22313      4.086396     
   1470000   1926.6116     -98.653039     -102.88662     -102.88662      4.2335796    
   1471000   1894.8703     -98.510429     -102.67426     -102.67426      4.1638306    
   1472000   1852.7993     -96.954332     -101.02571     -101.02571      4.0713828    
   1473000   1907.7217     -96.937888     -101.12996     -101.12996      4.1920704    
   1474000   1886.7236     -98.219138     -102.36507     -102.36507      4.1459289    
   1475000   1755.7216     -97.075748     -100.93381     -100.93381      3.8580621    
   1476000   1898.1862     -97.803317     -101.97443     -101.97443      4.171117     
   1477000   1822.2787     -98.815675     -102.81999     -102.81999      4.0043161    
   1478000   1923.1281     -98.922821     -103.14875     -103.14875      4.2259249    
   1479000   1824.5535     -97.022679     -101.03199     -101.03199      4.0093149    
   1480000   1843.1011     -96.860941     -100.91101     -100.91101      4.0500717    
   1481000   1920.0812     -97.572096     -101.79133     -101.79133      4.2192297    
   1482000   1776.5987     -96.992572     -100.89651     -100.89651      3.9039379    
   1483000   1796.1044     -97.178847     -101.12565     -101.12565      3.9468001    
   1484000   1903.3575     -97.200111     -101.38259     -101.38259      4.1824806    
   1485000   1832.9149     -96.860586     -100.88827     -100.88827      4.0276885    
   1486000   1833.6581     -97.170625     -101.19995     -101.19995      4.0293215    
   1487000   1848.2981     -96.999179     -101.06067     -101.06067      4.0614918    
   1488000   1939.5515     -96.446829     -100.70884     -100.70884      4.262014     
   1489000   1995.8924     -97.287149     -101.67297     -101.67297      4.3858189    
   1490000   1918.0381     -95.952116     -100.16686     -100.16686      4.2147401    
   1491000   1769.0213     -95.875303     -99.76259      -99.76259       3.8872871    
   1492000   1897.814      -96.978573     -101.14887     -101.14887      4.1702992    
   1493000   1902.0937     -98.424684     -102.60439     -102.60439      4.1797035    
   1494000   1708.5192     -96.748715     -100.50305     -100.50305      3.7543385    
   1495000   1816.9014     -96.390267     -100.38277     -100.38277      3.9925       
   1496000   1808.9826     -97.95273      -101.92783     -101.92783      3.9750991    
   1497000   1805.4244     -97.873256     -101.84054     -101.84054      3.9672802    
   1498000   1778.8927     -96.403407     -100.31239     -100.31239      3.9089789    
   1499000   1793.958      -97.067707     -101.00979     -101.00979      3.9420836    
   1500000   1788.3431     -97.874402     -101.80415     -101.80415      3.9297452    
   1501000   1727.3311     -97.909415     -101.70509     -101.70509      3.7956761    
   1502000   1814.0735     -98.66501      -102.6513      -102.6513       3.9862859    
   1503000   1775.5204     -98.259915     -102.16148     -102.16148      3.9015685    
   1504000   1746.277      -98.779159     -102.61647     -102.61647      3.8373082    
   1505000   1733.4594     -97.789478     -101.59862     -101.59862      3.8091426    
   1506000   1827.7109     -97.497339     -101.51359     -101.51359      4.016253     
   1507000   1787.724      -97.861892     -101.79028     -101.79028      3.9283849    
   1508000   1716.3324     -97.461222     -101.23273     -101.23273      3.7715073    
   1509000   1809.6732     -98.541425     -102.51804     -102.51804      3.9766166    
   1510000   1799.0338     -97.711303     -101.66454     -101.66454      3.9532373    
   1511000   1783.8821     -97.455494     -101.37544     -101.37544      3.9199426    
   1512000   1725.6864     -98.162595     -101.95466     -101.95466      3.7920621    
   1513000   1739.4956     -97.998837     -101.82124     -101.82124      3.8224067    
   1514000   1810.7376     -98.240999     -102.21995     -102.21995      3.9789555    
   1515000   1728.7304     -98.132145     -101.9309      -101.9309       3.7987511    
   1516000   1764.3362     -97.746622     -101.62361     -101.62361      3.8769919    
   1517000   1759.5502     -98.558538     -102.42501     -102.42501      3.8664751    
   1518000   1714.6399     -98.865636     -102.63342     -102.63342      3.7677883    
   1519000   1733.3463     -99.221092     -103.02999     -103.02999      3.8088941    
   1520000   1780.2365     -97.517406     -101.42934     -101.42934      3.9119317    
   1521000   1701.4092     -97.964814     -101.70353     -101.70353      3.7387148    
   1522000   1648.1289     -97.162437     -100.78407     -100.78407      3.6216354    
   1523000   1749.2725     -97.817613     -101.6615      -101.6615       3.8438907    
   1524000   1660.4282     -97.653694     -101.30236     -101.30236      3.6486621    
   1525000   1700.157      -97.88052      -101.61648     -101.61648      3.7359632    
   1526000   1757.669      -98.008713     -101.87105     -101.87105      3.8623414    
   1527000   1732.7292     -97.687432     -101.49497     -101.49497      3.8075381    
   1528000   1852.4567     -96.96354      -101.03417     -101.03417      4.07063      
   1529000   1739.7782     -99.143086     -102.96611     -102.96611      3.8230277    
   1530000   1792.2959     -99.166259     -103.10469     -103.10469      3.9384313    
   1531000   1713.8924     -99.003287     -102.76943     -102.76943      3.7661458    
   1532000   1649.3812     -96.483402     -100.10779     -100.10779      3.6243872    
   1533000   1736.879      -99.187545     -103.0042      -103.0042       3.816657     
   1534000   1710.0955     -99.042441     -102.80024     -102.80024      3.7578022    
   1535000   1759.1283     -98.96105      -102.8266      -102.8266       3.8655481    
   1536000   1694.4721     -98.034285     -101.75776     -101.75776      3.7234711    
   1537000   1748.2653     -97.987998     -101.82968     -101.82968      3.8416775    
   1538000   1683.924      -96.986784     -100.68708     -100.68708      3.7002924    
   1539000   1693.9578     -98.67343      -102.39577     -102.39577      3.722341     
   1540000   1734.3023     -96.865211     -100.67621     -100.67621      3.8109948    
   1541000   1623.4462     -98.210745     -101.77814     -101.77814      3.5673971    
   1542000   1747.8707     -98.347037     -102.18785     -102.18785      3.8408103    
   1543000   1674.5871     -99.842836     -103.52261     -103.52261      3.6797752    
   1544000   1683.9517     -98.795109     -102.49546     -102.49546      3.7003532    
   1545000   1637.4754     -97.85871      -101.45694     -101.45694      3.5982253    
   1546000   1625.3341     -99.327954     -102.8995      -102.8995       3.5715457    
   1547000   1691.5353     -98.106258     -101.82328     -101.82328      3.7170176    
   1548000   1560.6733     -96.781903     -100.21136     -100.21136      3.4294586    
   1549000   1616.3487     -97.968752     -101.52055     -101.52055      3.5518009    
   1550000   1719.5872     -99.314374     -103.09303     -103.09303      3.7786595    
   1551000   1635.652      -97.482052     -101.07627     -101.07627      3.5942185    
   1552000   1639.5303     -98.553247     -102.15599     -102.15599      3.6027407    
   1553000   1682.7485     -98.267734     -101.96544     -101.96544      3.6977094    
   1554000   1593.1266     -97.944376     -101.44515     -101.44515      3.5007722    
   1555000   1660.5723     -99.136141     -102.78512     -102.78512      3.648979     
   1556000   1608.9659     -98.12158      -101.65716     -101.65716      3.5355777    
   1557000   1633.8172     -99.946598     -103.53678     -103.53678      3.5901866    
   1558000   1641.7258     -97.358465     -100.96603     -100.96603      3.6075651    
   1559000   1716.5189     -98.415419     -102.18734     -102.18734      3.7719172    
   1560000   1612.4014     -99.068645     -102.61177     -102.61177      3.543127     
   1561000   1612.5351     -98.40235      -101.94577     -101.94577      3.5434209    
   1562000   1653.3619     -99.113044     -102.74618     -102.74618      3.6331345    
   1563000   1574.221      -97.842914     -101.30214     -101.30214      3.4592285    
   1564000   1601.903      -98.038543     -101.5586      -101.5586       3.5200575    
   1565000   1678.2558     -98.447569     -102.13541     -102.13541      3.6878369    
   1566000   1605.7251     -97.725579     -101.25404     -101.25404      3.5284564    
   1567000   1747.7383     -99.005105     -102.84562     -102.84562      3.8405195    
   1568000   1531.9479     -98.28491      -101.65125     -101.65125      3.3663368    
   1569000   1563.1165     -98.916429     -102.35126     -102.35126      3.4348273    
   1570000   1607.9955     -98.202706     -101.73615     -101.73615      3.5334454    
   1571000   1654.5093     -99.021513     -102.65717     -102.65717      3.6356559    
   1572000   1664.5296     -96.912074     -100.56975     -100.56975      3.6576748    
   1573000   1618.9813     -98.64264      -102.20023     -102.20023      3.5575859    
   1574000   1511.3004     -97.215651     -100.53662     -100.53662      3.3209655    
   1575000   1663.5829     -97.907742     -101.56334     -101.56334      3.6555945    
   1576000   1509.1098     -98.712892     -102.02904     -102.02904      3.3161517    
   1577000   1544.0665     -99.455991     -102.84896     -102.84896      3.3929664    
   1578000   1564.5201     -99.368689     -102.8066      -102.8066       3.4379116    
   1579000   1675.8846     -99.12074      -102.80337     -102.80337      3.6826265    
   1580000   1750.1783     -98.207951     -102.05383     -102.05383      3.8458811    
   1581000   1426.6794     -98.84876      -101.98378     -101.98378      3.1350173    
   1582000   1489.6667     -98.124408     -101.39784     -101.39784      3.2734271    
   1583000   1568.7115     -97.932123     -101.37924     -101.37924      3.4471218    
   1584000   1489.8401     -99.058867     -102.33268     -102.33268      3.273808     
   1585000   1582.5594     -97.892548     -101.3701      -101.3701       3.4775515    
   1586000   1576.981      -99.078879     -102.54417     -102.54417      3.4652935    
   1587000   1601.9892     -99.546198     -103.06645     -103.06645      3.520247     
   1588000   1520.493      -98.887931     -102.2291      -102.2291       3.3411655    
   1589000   1550.1361     -99.228659     -102.63496     -102.63496      3.4063038    
   1590000   1488.6973     -98.529705     -101.801       -101.801        3.2712968    
   1591000   1551.4634     -99.221947     -102.63117     -102.63117      3.4092204    
   1592000   1507.1276     -97.997563     -101.30936     -101.30936      3.311796     
   1593000   1580.0107     -99.070503     -102.54245     -102.54245      3.471951     
   1594000   1488.7815     -98.43591      -101.70739     -101.70739      3.271482     
   1595000   1455.6133     -98.833754     -102.03235     -102.03235      3.1985973    
   1596000   1414.2298     -99.635502     -102.74316     -102.74316      3.1076603    
   1597000   1592.1641     -97.432919     -100.93158     -100.93158      3.4986571    
   1598000   1468.3505     -99.110057     -102.33664     -102.33664      3.2265864    
   1599000   1500.4339     -98.489515     -101.7866      -101.7866       3.2970871    
   1600000   1537.2484     -97.834913     -101.2129      -101.2129       3.3779842    
   1601000   1442.4013     -99.310137     -102.4797      -102.4797       3.169565     
   1602000   1454.1523     -99.318804     -102.51419     -102.51419      3.1953869    
   1603000   1525.4203     -99.059025     -102.41102     -102.41102      3.3519928    
   1604000   1466.2878     -98.908865     -102.13092     -102.13092      3.2220537    
   1605000   1404.6567     -99.115722     -102.20235     -102.20235      3.0866243    
   1606000   1523.5184     -97.654389     -101.0022      -101.0022       3.3478135    
   1607000   1399.1434     -98.204315     -101.27882     -101.27882      3.0745091    
   1608000   1405.3299     -98.943604     -102.03171     -102.03171      3.0881035    
   1609000   1518.7513     -99.522151     -102.85949     -102.85949      3.3373382    
   1610000   1365.5684     -98.18834      -101.18907     -101.18907      3.0007307    
   1611000   1403.6007     -98.450484     -101.53479     -101.53479      3.0843038    
   1612000   1477.7913     -99.018429     -102.26576     -102.26576      3.2473318    
   1613000   1521.1068     -99.704377     -103.04689     -103.04689      3.3425142    
   1614000   1473.2283     -98.799053     -102.03636     -102.03636      3.2373049    
   1615000   1381.5784     -98.479691     -101.5156      -101.5156       3.0359115    
   1616000   1461.6905     -99.508024     -102.71998     -102.71998      3.2119515    
   1617000   1367.3789     -99.160546     -102.16526     -102.16526      3.0047092    
   1618000   1395.8439     -98.942519     -102.00978     -102.00978      3.0672588    
   1619000   1431.4021     -99.775776     -102.92117     -102.92117      3.145395     
   1620000   1484.079      -98.947084     -102.20823     -102.20823      3.2611485    
   1621000   1496.5395     -99.009732     -102.29826     -102.29826      3.2885294    
   1622000   1452.3318     -100.17199     -103.36338     -103.36338      3.1913865    
   1623000   1380.2979     -100.0367      -103.0698      -103.0698       3.0330975    
   1624000   1483.6794     -98.242614     -101.50288     -101.50288      3.2602703    
   1625000   1396.2198     -99.206063     -102.27415     -102.27415      3.0680849    
   1626000   1499.9364     -99.178031     -102.47402     -102.47402      3.2959939    
   1627000   1406.6402     -99.67677      -102.76775     -102.76775      3.0909827    
   1628000   1325.69       -99.708832     -102.62193     -102.62193      2.913101     
   1629000   1426.6426     -99.160177     -102.29511     -102.29511      3.1349365    
   1630000   1419.5518     -99.759706     -102.87906     -102.87906      3.1193551    
   1631000   1373.9427     -99.877428     -102.89656     -102.89656      3.0191324    
   1632000   1337.2811     -99.50343      -102.442       -102.442        2.9385715    
   1633000   1363.4146     -99.68425      -102.68025     -102.68025      2.9959978    
   1634000   1417.2106     -99.842041     -102.95625     -102.95625      3.1142104    
   1635000   1407.649      -99.253281     -102.34648     -102.34648      3.0931996    
   1636000   1402.0138     -100.46472     -103.54554     -103.54554      3.0808166    
   1637000   1417.0425     -100.11263     -103.22647     -103.22647      3.113841     
   1638000   1357.7416     -99.544521     -102.52805     -102.52805      2.9835318    
   1639000   1356.5066     -99.664379     -102.6452      -102.6452       2.980818     
   1640000   1386.0789     -98.112021     -101.15782     -101.15782      3.0458009    
   1641000   1280.5002     -99.206667     -102.02047     -102.02047      2.8137998    
   1642000   1409.0288     -100.52442     -103.62065     -103.62065      3.0962314    
   1643000   1384.0805     -100.24157     -103.28298     -103.28298      3.0414096    
   1644000   1337.5994     -99.44767      -102.38694     -102.38694      2.9392709    
   1645000   1441.2618     -98.75707      -101.92413     -101.92413      3.1670611    
   1646000   1350.5746     -99.596001     -102.56378     -102.56378      2.9677831    
   1647000   1341.0945     -100.03043     -102.97738     -102.97738      2.9469511    
   1648000   1371.1199     -100.97919     -103.99212     -103.99212      3.0129297    
   1649000   1341.6811     -100.6511      -103.59934     -103.59934      2.9482401    
   1650000   1400.8284     -100.01488     -103.0931      -103.0931       3.0782118    
   1651000   1390.8929     -99.582532     -102.63891     -102.63891      3.0563792    
   1652000   1375.0794     -100.79988     -103.82151     -103.82151      3.0216304    
   1653000   1315.5141     -99.974786     -102.86553     -102.86553      2.8907403    
   1654000   1366.2976     -99.18745      -102.18978     -102.18978      3.0023331    
   1655000   1303.7981     -99.677194     -102.54219     -102.54219      2.8649952    
   1656000   1340.522      -99.827062     -102.77275     -102.77275      2.9456931    
   1657000   1332.9451     -100.35433     -103.28338     -103.28338      2.9290436    
   1658000   1354.9549     -100.15208     -103.12949     -103.12949      2.9774084    
   1659000   1358.3649     -100.68106     -103.66596     -103.66596      2.9849016    
   1660000   1264.8013     -100.48693     -103.26624     -103.26624      2.7793028    
   1661000   1289.5623     -99.959254     -102.79297     -102.79297      2.8337131    
   1662000   1271.9372     -100.85507     -103.65006     -103.65006      2.7949834    
   1663000   1330.1968     -99.853269     -102.77627     -102.77627      2.9230043    
   1664000   1331.8997     -100.29982     -103.22656     -103.22656      2.9267462    
   1665000   1385.9913     -100.77692     -103.82252     -103.82252      3.0456084    
   1666000   1342.0851     -100.66012     -103.60925     -103.60925      2.949128     
   1667000   1277.1972     -101.00491     -103.81145     -103.81145      2.8065418    
   1668000   1320.453      -99.288094     -102.18969     -102.18969      2.9015932    
   1669000   1224.8521     -99.345993     -102.03751     -102.03751      2.6915174    
   1670000   1300.1323     -99.805309     -102.66225     -102.66225      2.85694      
   1671000   1336.7166     -100.24753     -103.18486     -103.18486      2.9373312    
   1672000   1297.8259     -100.54553     -103.3974      -103.3974       2.8518717    
   1673000   1256.3793     -100.87713     -103.63793     -103.63793      2.7607962    
   1674000   1293.8395     -100.65965     -103.50276     -103.50276      2.8431119    
   1675000   1316.6635     -98.828713     -101.72198     -101.72198      2.893266     
   1676000   1266.6982     -100.15519     -102.93866     -102.93866      2.7834711    
   1677000   1256.4228     -100.39749     -103.15838     -103.15838      2.7608916    
   1678000   1255.6001     -99.730932     -102.49002     -102.49002      2.7590839    
   1679000   1291.1264     -100.08892     -102.92607     -102.92607      2.8371502    
   1680000   1171.4492     -98.972906     -101.54707     -101.54707      2.5741688    
   1681000   1261.2951     -99.425338     -102.19694     -102.19694      2.7715981    
   1682000   1198.8593     -100.57611     -103.21051     -103.21051      2.6344003    
   1683000   1248.1755     -99.605195     -102.34796     -102.34796      2.7427688    
   1684000   1259.3966     -100.9186      -103.68602     -103.68602      2.7674263    
   1685000   1297.7016     -99.200562     -102.05216     -102.05216      2.8515987    
   1686000   1264.9714     -100.0627      -102.84238     -102.84238      2.7796767    
   1687000   1227.1561     -100.89116     -103.58774     -103.58774      2.6965804    
   1688000   1244.2707     -99.590465     -102.32465     -102.32465      2.7341884    
   1689000   1228.5689     -100.22199     -102.92168     -102.92168      2.6996848    
   1690000   1271.0215     -100.09932     -102.89229     -102.89229      2.7929711    
   1691000   1275.9195     -100.23066     -103.0344      -103.0344       2.8037341    
   1692000   1209.479      -99.758471     -102.41621     -102.41621      2.6577364    
   1693000   1265.387      -100.63085     -103.41144     -103.41144      2.7805898    
   1694000   1185.2667     -100.57804     -103.18257     -103.18257      2.6045316    
   1695000   1279.4275     -99.683752     -102.49519     -102.49519      2.8114426    
   1696000   1193.5204     -99.683648     -102.30632     -102.30632      2.6226686    
   1697000   1185.6952     -99.899717     -102.50519     -102.50519      2.6054732    
   1698000   1213.3814     -99.824071     -102.49038     -102.49038      2.6663116    
   1699000   1187.0943     -100.76312     -103.37167     -103.37167      2.6085477    
   1700000   1151.9198     -100.59917     -103.13043     -103.13043      2.5312545    
   1701000   1187.1737     -100.38887     -102.9976      -102.9976       2.6087221    
   1702000   1179.5068     -99.777016     -102.36889     -102.36889      2.5918748    
   1703000   1236.4153     -101.5517      -104.26863     -104.26863      2.7169268    
   1704000   1144.0433     -99.183863     -101.69781     -101.69781      2.5139465    
   1705000   1153.6551     -99.613985     -102.14905     -102.14905      2.5350676    
   1706000   1169.6221     -99.982962     -102.55312     -102.55312      2.5701538    
   1707000   1189.0817     -100.35948     -102.97239     -102.97239      2.6129149    
   1708000   1153.4207     -100.79775     -103.3323      -103.3323       2.5345525    
   1709000   1202.4037     -100.37419     -103.01638     -103.01638      2.6421889    
   1710000   1168.9519     -100.05744     -102.62612     -102.62612      2.5686811    
   1711000   1175.3523     -100.16631     -102.74905     -102.74905      2.5827457    
   1712000   1139.5893     -100.77535     -103.27951     -103.27951      2.5041591    
   1713000   1153.3655     -101.09685     -103.63128     -103.63128      2.5344313    
   1714000   1158.4624     -99.418883     -101.96451     -101.96451      2.5456314    
   1715000   1169.865      -100.69233     -103.26302     -103.26302      2.5706875    
   1716000   1152.6605     -100.73968     -103.27256     -103.27256      2.532882     
   1717000   1173.5934     -100.07037     -102.64925     -102.64925      2.5788805    
   1718000   1132.9816     -101.00035     -103.48999     -103.48999      2.4896393    
   1719000   1128.4909     -100.50029     -102.98006     -102.98006      2.4797712    
   1720000   1166.9865     -101.21543     -103.7798      -103.7798       2.5643624    
   1721000   1152.3827     -100.05639     -102.58866     -102.58866      2.5322716    
   1722000   1093.8757     -99.389196     -101.7929      -101.7929       2.4037071    
   1723000   1110.3325     -100.67302     -103.11289     -103.11289      2.4398696    
   1724000   1105.8167     -100.80322     -103.23317     -103.23317      2.4299464    
   1725000   1048.0072     -100.60987     -102.91279     -102.91279      2.3029146    
   1726000   1100.8509     -99.619693     -102.03873     -102.03873      2.4190345    
   1727000   1118.3845     -101.28359     -103.74115     -103.74115      2.4575632    
   1728000   1154.2212     -101.40732     -103.94363     -103.94363      2.5363117    
   1729000   1126.3888     -99.965273     -102.44043     -102.44043      2.475152     
   1730000   1107.6496     -101.31165     -103.74563     -103.74563      2.433974     
   1731000   1050.2132     -100.20744     -102.5152      -102.5152       2.307762     
   1732000   1094.9211     -100.84923     -103.25523     -103.25523      2.4060042    
   1733000   1061.4409     -101.07659     -103.40903     -103.40903      2.332434     
   1734000   1088.8666     -100.52877     -102.92147     -102.92147      2.3927       
   1735000   1103.4504     -100.4638      -102.88854     -102.88854      2.4247468    
   1736000   1099.3757     -100.62067     -103.03647     -103.03647      2.4157929    
   1737000   1037.0905     -100.52425     -102.80318     -102.80318      2.2789259    
   1738000   1071.393      -100.55184     -102.90614     -102.90614      2.3543031    
   1739000   1082.9959     -100.33076     -102.71056     -102.71056      2.3797994    
   1740000   1085.9893     -101.02985     -103.41622     -103.41622      2.3863773    
   1741000   1061.1373     -100.57554     -102.90731     -102.90731      2.3317669    
   1742000   1038.2695     -100.66046     -102.94198     -102.94198      2.2815167    
   1743000   1084.158      -100.22919     -102.61154     -102.61154      2.3823532    
   1744000   1131.386      -101.15631     -103.64244     -103.64244      2.4861331    
   1745000   1046.407      -101.03465     -103.33405     -103.33405      2.2993982    
   1746000   1081.5808     -100.55817     -102.93486     -102.93486      2.3766899    
   1747000   1056.5234     -101.15232     -103.47395     -103.47395      2.3216283    
   1748000   1055.1761     -101.21025     -103.52892     -103.52892      2.3186676    
   1749000   1061.2551     -100.60233     -102.93436     -102.93436      2.3320257    
   1750000   1079.3754     -100.54564     -102.91749     -102.91749      2.3718437    
   1751000   1070.6116     -101.46368     -103.81626     -103.81626      2.352586     
   1752000   1069.4776     -100.81965     -103.16975     -103.16975      2.3500941    
   1753000   1029.9861     -101.41179     -103.67511     -103.67511      2.2633145    
   1754000   990.46758     -100.69642     -102.8729      -102.8729       2.1764757    
   1755000   997.86404     -101.54778     -103.74051     -103.74051      2.1927289    
   1756000   980.22867     -100.93526     -103.08924     -103.08924      2.1539765    
   1757000   1056.9504     -100.56255     -102.88512     -102.88512      2.3225664    
   1758000   1080.8604     -100.74016     -103.11527     -103.11527      2.375107     
   1759000   1035.8064     -100.7884      -103.06451     -103.06451      2.2761043    
   1760000   1070.8935     -101.50744     -103.86065     -103.86065      2.3532054    
   1761000   983.04331     -101.06669     -103.22685     -103.22685      2.1601615    
   1762000   1049.6004     -101.47506     -103.78148     -103.78148      2.3064156    
   1763000   1024.4722     -101.8068      -104.058       -104.058        2.2511982    
   1764000   955.13688     -101.60042     -103.69926     -103.69926      2.0988392    
   1765000   1027.7043     -101.13805     -103.39635     -103.39635      2.2583005    
   1766000   982.33467     -101.63256     -103.79117     -103.79117      2.1586043    
   1767000   1026.0127     -101.29086     -103.54544     -103.54544      2.2545835    
   1768000   977.11009     -101.84395     -103.99107     -103.99107      2.1471237    
   1769000   977.31999     -101.42706     -103.57465     -103.57465      2.1475849    
   1770000   1019.8839     -101.44388     -103.685       -103.685        2.2411158    
   1771000   954.27899     -100.27764     -102.3746      -102.3746       2.0969541    
   1772000   927.05972     -100.50608     -102.54322     -102.54322      2.0371419    
   1773000   1001.4617     -100.55291     -102.75354     -102.75354      2.2006344    
   1774000   971.6948      -101.06636     -103.20158     -103.20158      2.135224     
   1775000   942.45222     -101.54057     -103.61153     -103.61153      2.0709657    
   1776000   950.05526     -100.70792     -102.7956      -102.7956       2.0876728    
   1777000   894.79516     -100.35386     -102.3201      -102.3201       1.966243     
   1778000   932.96377     -100.87624     -102.92635     -102.92635      2.0501156    
   1779000   940.47418     -101.85766     -103.92427     -103.92427      2.0666191    
   1780000   944.75935     -101.08497     -103.161       -103.161        2.0760354    
   1781000   928.96759     -101.2602      -103.30154     -103.30154      2.0413342    
   1782000   922.54841     -100.58792     -102.61515     -102.61515      2.0272286    
   1783000   963.26442     -100.75118     -102.86788     -102.86788      2.1166989    
   1784000   987.76404     -100.62801     -102.79854     -102.79854      2.1705349    
   1785000   934.48846     -101.52335     -103.57682     -103.57682      2.0534659    
   1786000   939.69865     -101.79903     -103.86394     -103.86394      2.0649149    
   1787000   941.47003     -101.84465     -103.91346     -103.91346      2.0688074    
   1788000   959.16955     -100.89088     -102.99858     -102.99858      2.1077007    
   1789000   927.05965     -102.0691      -104.10624     -104.10624      2.0371417    
   1790000   899.43647     -101.43421     -103.41066     -103.41066      1.9764419    
   1791000   947.25022     -101.39564     -103.47715     -103.47715      2.0815089    
   1792000   943.8375      -101.6601      -103.73411     -103.73411      2.0740097    
   1793000   919.2057      -101.82106     -103.84094     -103.84094      2.0198833    
   1794000   908.48893     -101.07797     -103.0743      -103.0743       1.996334     
   1795000   903.4887      -102.16694     -104.15228     -104.15228      1.9853464    
   1796000   917.33271     -101.8449      -103.86067     -103.86067      2.0157675    
   1797000   921.15899     -101.93771     -103.96189     -103.96189      2.0241754    
   1798000   898.48116     -100.54385     -102.5182      -102.5182       1.9743427    
   1799000   919.65887     -101.8928      -103.91368     -103.91368      2.0208791    
   1800000   897.06391     -100.99138     -102.96261     -102.96261      1.9712284    
   1801000   924.2235      -101.36023     -103.39114     -103.39114      2.0309095    
   1802000   924.75209     -102.05708     -104.08915     -104.08915      2.032071     
   1803000   881.14788     -101.70117     -103.63742     -103.63742      1.9362542    
   1804000   890.64397     -101.78976     -103.74688     -103.74688      1.9571211    
   1805000   874.34591     -101.56939     -103.4907      -103.4907       1.9213074    
   1806000   855.42558     -102.15578     -104.03551     -104.03551      1.8797314    
   1807000   904.91134     -101.59323     -103.5817      -103.5817       1.9884725    
   1808000   881.29821     -101.09695     -103.03354     -103.03354      1.9365845    
   1809000   882.42235     -101.80214     -103.7412      -103.7412       1.9390547    
   1810000   856.83584     -101.66063     -103.54346     -103.54346      1.8828303    
   1811000   893.28855     -101.80222     -103.76515     -103.76515      1.9629323    
   1812000   882.97616     -101.74032     -103.68059     -103.68059      1.9402716    
   1813000   824.50163     -101.40505     -103.21682     -103.21682      1.8117784    
   1814000   849.85173     -101.17271     -103.04019     -103.04019      1.8674833    
   1815000   906.32721     -101.81006     -103.80164     -103.80164      1.9915838    
   1816000   835.64792     -101.25611     -103.09238     -103.09238      1.8362715    
   1817000   821.05335     -102.40361     -104.20781     -104.20781      1.8042011    
   1818000   833.62502     -101.61603     -103.44785     -103.44785      1.8318263    
   1819000   846.835       -101.46347     -103.32432     -103.32432      1.8608543    
   1820000   842.05723     -102.42203     -104.27238     -104.27238      1.8503555    
   1821000   827.84613     -102.26033     -104.07946     -104.07946      1.8191277    
   1822000   818.4169      -100.95577     -102.75418     -102.75418      1.7984077    
   1823000   801.33764     -102.03566     -103.79653     -103.79653      1.7608773    
   1824000   859.87317     -101.7159      -103.60541     -103.60541      1.8895046    
   1825000   843.66056     -102.16183     -104.01571     -104.01571      1.8538787    
   1826000   789.14426     -101.08853     -102.82261     -102.82261      1.7340833    
   1827000   820.98868     -101.01524     -102.8193      -102.8193       1.804059     
   1828000   782.08215     -101.56351     -103.28207     -103.28207      1.7185649    
   1829000   815.17957     -102.0185      -103.8098      -103.8098       1.7912939    
   1830000   752.43248     -101.68708     -103.34049     -103.34049      1.653412     
   1831000   793.00173     -101.98962     -103.73218     -103.73218      1.7425598    
   1832000   781.625       -101.87927     -103.59683     -103.59683      1.7175603    
   1833000   795.62537     -101.87887     -103.6272      -103.6272       1.7483251    
   1834000   790.27822     -102.36635     -104.10293     -104.10293      1.7365751    
   1835000   776.65837     -102.33853     -104.04518     -104.04518      1.7066465    
   1836000   807.26649     -102.19816     -103.97206     -103.97206      1.7739055    
   1837000   792.96642     -102.86185     -104.60434     -104.60434      1.7424822    
   1838000   783.141       -102.15788     -103.87877     -103.87877      1.7208916    
   1839000   808.94562     -102.26941     -104.047       -104.047        1.7775953    
   1840000   773.03693     -102.45662     -104.15531     -104.15531      1.6986887    
   1841000   766.24159     -102.47787     -104.16163     -104.16163      1.6837565    
   1842000   753.23382     -102.13237     -103.78754     -103.78754      1.6551729    
   1843000   820.34613     -102.54197     -104.34462     -104.34462      1.802647     
   1844000   779.11977     -102.4439      -104.15596     -104.15596      1.7120553    
   1845000   827.22599     -102.01609     -103.83385     -103.83385      1.817765     
   1846000   767.69738     -102.05789     -103.74484     -103.74484      1.6869555    
   1847000   733.91581     -101.59377     -103.2065      -103.2065       1.6127231    
   1848000   768.33184     -101.2064      -102.89475     -102.89475      1.6883496    
   1849000   763.45619     -101.41075     -103.08838     -103.08838      1.6776358    
   1850000   790.28479     -101.94897     -103.68556     -103.68556      1.7365896    
   1851000   745.03587     -102.6054      -104.24256     -104.24256      1.6371586    
   1852000   749.05804     -102.16027     -103.80627     -103.80627      1.645997     
   1853000   710.28339     -102.81653     -104.37732     -104.37732      1.5607927    
   1854000   720.07782     -102.75802     -104.34033     -104.34033      1.5823152    
   1855000   745.75826     -102.52408     -104.16283     -104.16283      1.638746     
   1856000   753.34923     -102.8234      -104.47883     -104.47883      1.6554265    
   1857000   713.35546     -102.89511     -104.46265     -104.46265      1.5675433    
   1858000   726.71109     -102.55731     -104.1542      -104.1542       1.5968913    
   1859000   731.56908     -102.83896     -104.44652     -104.44652      1.6075663    
   1860000   711.51855     -102.907       -104.47051     -104.47051      1.5635068    
   1861000   721.06635     -102.40771     -103.99219     -103.99219      1.5844874    
   1862000   696.9362      -103.06912     -104.60059     -104.60059      1.5314633    
   1863000   682.50671     -101.90104     -103.4008      -103.4008       1.4997556    
   1864000   692.44239     -101.96925     -103.49084     -103.49084      1.5215885    
   1865000   732.32689     -101.95443     -103.56366     -103.56366      1.6092316    
   1866000   706.34832     -102.79002     -104.34217     -104.34217      1.5521457    
   1867000   707.97427     -102.77997     -104.33569     -104.33569      1.5557186    
   1868000   691.66196     -102.7761      -104.29597     -104.29597      1.5198735    
   1869000   706.73554     -102.83299     -104.38598     -104.38598      1.5529966    
   1870000   707.14286     -102.6882      -104.24209     -104.24209      1.5538916    
   1871000   682.77684     -102.75287     -104.25322     -104.25322      1.5003492    
   1872000   670.52937     -103.10555     -104.57899     -104.57899      1.4734363    
   1873000   682.24117     -103.03481     -104.53399     -104.53399      1.4991721    
   1874000   682.89429     -102.88392     -104.38453     -104.38453      1.5006072    
   1875000   668.85783     -102.68412     -104.15388     -104.15388      1.4697632    
   1876000   693.35298     -102.95147     -104.47506     -104.47506      1.5235894    
   1877000   687.1003      -102.65876     -104.16861     -104.16861      1.5098496    
   1878000   663.57836     -102.38625     -103.84441     -103.84441      1.458162     
   1879000   643.293       -102.41744     -103.83103     -103.83103      1.4135865    
   1880000   652.23567     -102.50389     -103.93713     -103.93713      1.4332373    
   1881000   665.15017     -102.28157     -103.74318     -103.74318      1.4616159    
   1882000   618.43735     -102.99345     -104.35242     -104.35242      1.3589681    
   1883000   665.11316     -103.01563     -104.47717     -104.47717      1.4615346    
   1884000   623.05438     -103.07594     -104.44506     -104.44506      1.3691137    
   1885000   650.59751     -102.96849     -104.39813     -104.39813      1.4296376    
   1886000   617.885       -102.54309     -103.90084     -103.90084      1.3577544    
   1887000   636.3671      -102.56343     -103.96179     -103.96179      1.3983674    
   1888000   641.64364     -102.80332     -104.21328     -104.21328      1.4099622    
   1889000   670.1011      -103.00966     -104.48216     -104.48216      1.4724952    
   1890000   625.53949     -102.59962     -103.9742      -103.9742       1.3745745    
   1891000   656.91854     -102.67317     -104.1167      -104.1167       1.4435276    
   1892000   628.98744     -102.89714     -104.27929     -104.27929      1.3821511    
   1893000   622.59705     -102.66467     -104.03278     -104.03278      1.3681087    
   1894000   605.22868     -102.67287     -104.00282     -104.00282      1.3299431    
   1895000   652.62289     -102.60139     -104.03547     -104.03547      1.4340882    
   1896000   605.47029     -102.99143     -104.3219      -104.3219       1.330474     
   1897000   610.69799     -103.02638     -104.36835     -104.36835      1.3419615    
   1898000   616.92892     -103.15249     -104.50815     -104.50815      1.3556535    
   1899000   596.54374     -102.98417     -104.29503     -104.29503      1.3108586    
   1900000   609.02507     -102.7725      -104.11079     -104.11079      1.3382854    
   1901000   589.49702     -102.78615     -104.08152     -104.08152      1.295374     
   1902000   605.06932     -102.77988     -104.10947     -104.10947      1.3295929    
   1903000   593.86142     -102.78066     -104.08563     -104.08563      1.3049644    
   1904000   600.40078     -102.92421     -104.24355     -104.24355      1.3193342    
   1905000   573.5007      -102.65596     -103.91618     -103.91618      1.2602233    
   1906000   593.59225     -103.21565     -104.52002     -104.52002      1.3043729    
   1907000   587.15174     -102.75905     -104.04927     -104.04927      1.2902204    
   1908000   604.88935     -102.86945     -104.19864     -104.19864      1.3291974    
   1909000   545.01705     -103.03506     -104.23269     -104.23269      1.1976327    
   1910000   560.7532      -103.30821     -104.54042     -104.54042      1.2322117    
   1911000   564.28806     -103.30325     -104.54323     -104.54323      1.2399793    
   1912000   579.43397     -103.38864     -104.66191     -104.66191      1.2732612    
   1913000   575.06828     -103.45859     -104.72226     -104.72226      1.2636679    
   1914000   562.78756     -103.36306     -104.59974     -104.59974      1.236682     
   1915000   544.75086     -103.63218     -104.82923     -104.82923      1.1970478    
   1916000   552.3701      -103.61509     -104.82888     -104.82888      1.2137905    
   1917000   538.46167     -103.41794     -104.60116     -104.60116      1.1832278    
   1918000   533.5994      -103.53461     -104.70715     -104.70715      1.1725433    
   1919000   550.55418     -102.97479     -104.18459     -104.18459      1.2098001    
   1920000   556.58506     -102.53753     -103.76059     -103.76059      1.2230525    
   1921000   526.08703     -102.25187     -103.40791     -103.40791      1.1560354    
   1922000   536.0323      -102.755       -103.93289     -103.93289      1.1778894    
   1923000   554.17734     -103.07007     -104.28783     -104.28783      1.2177617    
   1924000   533.02715     -103.57519     -104.74648     -104.74648      1.1712858    
   1925000   535.8608      -103.24725     -104.42476     -104.42476      1.1775125    
   1926000   535.03532     -103.71631     -104.89201     -104.89201      1.1756986    
   1927000   531.22818     -103.40962     -104.57696     -104.57696      1.1673327    
   1928000   498.07643     -103.57058     -104.66506     -104.66506      1.0944843    
   1929000   534.96325     -103.5112      -104.68674     -104.68674      1.1755403    
   1930000   504.73336     -103.79148     -104.9006      -104.9006       1.1091124    
   1931000   497.686       -103.81153     -104.90516     -104.90516      1.0936264    
   1932000   495.14709     -103.44871     -104.53676     -104.53676      1.0880473    
   1933000   501.0447      -103.33623     -104.43723     -104.43723      1.1010069    
   1934000   486.69828     -103.52816     -104.59765     -104.59765      1.0694817    
   1935000   500.36133     -103.8161      -104.9156      -104.9156       1.0995052    
   1936000   493.4372      -103.80392     -104.88821     -104.88821      1.08429      
   1937000   493.7936      -103.62501     -104.71008     -104.71008      1.0850731    
   1938000   490.47312     -103.10411     -104.18188     -104.18188      1.0777767    
   1939000   489.3244      -102.6939      -103.76916     -103.76916      1.0752524    
   1940000   508.03809     -103.33014     -104.44651     -104.44651      1.1163743    
   1941000   460.15504     -103.39213     -104.40328     -104.40328      1.011155     
   1942000   465.28693     -103.3295      -104.35194     -104.35194      1.022432     
   1943000   470.18312     -103.32692     -104.36011     -104.36011      1.0331909    
   1944000   450.79476     -103.51476     -104.50534     -104.50534      0.99058654   
   1945000   486.16973     -103.23466     -104.30298     -104.30298      1.0683203    
   1946000   445.83893     -103.08829     -104.06798     -104.06798      0.97969649   
   1947000   460.57219     -103.41446     -104.42653     -104.42653      1.0120717    
   1948000   479.40377     -103.18799     -104.24144     -104.24144      1.0534526    
   1949000   464.69446     -103.51671     -104.53784     -104.53784      1.02113      
   1950000   443.67329     -103.20882     -104.18376     -104.18376      0.97493765   
   1951000   441.24648     -103.66533     -104.63494     -104.63494      0.96960493   
   1952000   458.08883     -103.34146     -104.34808     -104.34808      1.0066147    
   1953000   451.84505     -103.43739     -104.43029     -104.43029      0.99289447   
   1954000   435.01539     -103.86718     -104.82309     -104.82309      0.95591259   
   1955000   425.2818      -103.43169     -104.36621     -104.36621      0.93452378   
   1956000   422.87878     -103.72055     -104.6498      -104.6498       0.92924332   
   1957000   442.48833     -103.652       -104.62433     -104.62433      0.9723338    
   1958000   428.94161     -103.4333      -104.37587     -104.37587      0.94256593   
   1959000   432.08921     -103.34045     -104.28994     -104.28994      0.94948253   
   1960000   413.90749     -103.84589     -104.75542     -104.75542      0.90952962   
   1961000   427.86726     -103.85599     -104.79619     -104.79619      0.94020513   
   1962000   412.65352     -103.79829     -104.70506     -104.70506      0.90677411   
   1963000   409.35854     -103.70541     -104.60494     -104.60494      0.89953364   
   1964000   402.16982     -103.8128      -104.69654     -104.69654      0.883737     
   1965000   388.88894     -103.66683     -104.52139     -104.52139      0.85455329   
   1966000   418.76536     -103.71615     -104.63636     -104.63636      0.92020441   
   1967000   387.67871     -103.38731     -104.2392      -104.2392       0.85189391   
   1968000   383.2558      -103.64697     -104.48914     -104.48914      0.84217491   
   1969000   407.04382     -103.71363     -104.60808     -104.60808      0.89444723   
   1970000   391.08953     -104.07282     -104.93221     -104.93221      0.85938893   
   1971000   383.71373     -103.78128     -104.62446     -104.62446      0.84318118   
   1972000   395.42741     -103.80914     -104.67807     -104.67807      0.86892108   
   1973000   371.87041     -103.97092     -104.78807     -104.78807      0.8171564    
   1974000   379.71547     -103.55509     -104.38949     -104.38949      0.8343953    
   1975000   379.22969     -103.52189     -104.35521     -104.35521      0.83332785   
   1976000   360.98908     -103.55038     -104.34363     -104.34363      0.79324551   
   1977000   362.60352     -103.7123      -104.50909     -104.50909      0.79679313   
   1978000   366.18568     -103.6097      -104.41436     -104.41436      0.80466465   
   1979000   362.06165     -104.04527     -104.84087     -104.84087      0.7956024    
   1980000   360.23476     -104.03396     -104.82554     -104.82554      0.79158795   
   1981000   360.34499     -104.10499     -104.89682     -104.89682      0.79183019   
   1982000   349.50988     -103.69382     -104.46184     -104.46184      0.76802087   
   1983000   364.57125     -103.58021     -104.38133     -104.38133      0.80111705   
   1984000   338.38772     -103.90422     -104.6478      -104.6478       0.74358077   
   1985000   345.78913     -104.05816     -104.81801     -104.81801      0.7598448    
   1986000   347.93536     -103.99987     -104.76443     -104.76443      0.76456097   
   1987000   344.70183     -104.16461     -104.92206     -104.92206      0.75745554   
   1988000   326.91953     -104.02052     -104.7389      -104.7389       0.71838033   
   1989000   328.72331     -103.68391     -104.40625     -104.40625      0.722344     
   1990000   347.42687     -104.14178     -104.90522     -104.90522      0.76344362   
   1991000   328.71466     -103.89273     -104.61505     -104.61505      0.72232499   
   1992000   319.46891     -103.89836     -104.60037     -104.60037      0.70200816   
   1993000   321.98766     -104.03807     -104.74561     -104.74561      0.70754291   
   1994000   318.03118     -104.11558     -104.81443     -104.81443      0.69884885   
   1995000   325.78072     -104.12973     -104.84561     -104.84561      0.71587786   
   1996000   320.89239     -103.69353     -104.39867     -104.39867      0.70513614   
   1997000   312.30876     -104.06226     -104.74854     -104.74854      0.68627429   
   1998000   300.67463     -103.85692     -104.51763     -104.51763      0.66070918   
   1999000   326.1021      -103.83975     -104.55633     -104.55633      0.71658408   
   2000000   302.31689     -103.98417     -104.64848     -104.64848      0.66431793   
   2001000   306.73242     -104.10534     -104.77936     -104.77936      0.6740207    
   2002000   276.50541     -104.16419     -104.77179     -104.77179      0.6075992    
   2003000   296.44054     -103.85307     -104.50448     -104.50448      0.6514051    
   2004000   284.15533     -104.18551     -104.80992     -104.80992      0.6244093    
   2005000   294.99661     -104.196       -104.84423     -104.84423      0.64823217   
   2006000   276.82927     -104.21928     -104.82759     -104.82759      0.60831085   
   2007000   282.49196     -103.79834     -104.41909     -104.41909      0.62075418   
   2008000   270.32908     -104.2872      -104.88123     -104.88123      0.5940272    
   2009000   275.36936     -104.24892     -104.85403     -104.85403      0.60510283   
   2010000   268.53724     -104.11015     -104.70024     -104.70024      0.59008977   
   2011000   267.60816     -104.19657     -104.78462     -104.78462      0.58804819   
   2012000   257.35697     -104.19503     -104.76055     -104.76055      0.56552199   
   2013000   256.09008     -104.30734     -104.87008     -104.87008      0.5627381    
   2014000   261.72354     -104.3355      -104.91061     -104.91061      0.57511719   
   2015000   248.29771     -104.37452     -104.92014     -104.92014      0.54561498   
   2016000   255.30065     -104.4539      -105.01491     -105.01491      0.56100338   
   2017000   254.61213     -104.13288     -104.69237     -104.69237      0.55949041   
   2018000   247.93988     -104.31965     -104.86448     -104.86448      0.54482865   
   2019000   249.61347     -104.21166     -104.76017     -104.76017      0.54850624   
   2020000   234.29474     -104.39161     -104.90645     -104.90645      0.51484452   
   2021000   232.45912     -104.3425      -104.85331     -104.85331      0.5108109    
   2022000   250.13761     -103.94049     -104.49015     -104.49015      0.549658     
   2023000   239.75584     -104.23497     -104.76181     -104.76181      0.52684486   
   2024000   229.93637     -104.38714     -104.89241     -104.89241      0.50526734   
   2025000   233.57136     -104.41176     -104.92502     -104.92502      0.51325495   
   2026000   230.6161      -104.18455     -104.69132     -104.69132      0.506761     
   2027000   210.25647     -104.33837     -104.8004      -104.8004       0.46202228   
   2028000   209.63723     -104.5262      -104.98686     -104.98686      0.46066157   
   2029000   218.69702     -104.406       -104.88657     -104.88657      0.48056975   
   2030000   205.63098     -104.39028     -104.84214     -104.84214      0.45185815   
   2031000   201.4537      -104.47005     -104.91273     -104.91273      0.44267888   
   2032000   191.45685     -104.43531     -104.85602     -104.85602      0.42071158   
   2033000   208.18097     -104.47177     -104.92923     -104.92923      0.45746154   
   2034000   203.45235     -104.4727      -104.91977     -104.91977      0.44707077   
   2035000   202.39573     -104.61056     -105.05531     -105.05531      0.44474892   
   2036000   196.18519     -104.45661     -104.88771     -104.88771      0.43110174   
   2037000   193.38622     -104.55837     -104.98332     -104.98332      0.42495122   
   2038000   180.35498     -104.41684     -104.81315     -104.81315      0.39631609   
   2039000   181.18331     -104.37672     -104.77486     -104.77486      0.39813628   
   2040000   178.93499     -104.59406     -104.98726     -104.98726      0.39319578   
   2041000   179.02132     -104.43085     -104.82423     -104.82423      0.39338547   
   2042000   172.30945     -104.55503     -104.93367     -104.93367      0.37863665   
   2043000   161.68495     -104.50991     -104.8652      -104.8652       0.35529014   
   2044000   158.51225     -104.68408     -105.0324      -105.0324       0.34831837   
   2045000   167.90434     -104.7641      -105.13305     -105.13305      0.36895676   
   2046000   152.60202     -104.72715     -105.06248     -105.06248      0.3353311    
   2047000   149.03954     -104.70534     -105.03284     -105.03284      0.32750282   
   2048000   156.19175     -104.78602     -105.12924     -105.12924      0.34321926   
   2049000   155.99781     -104.57292     -104.91572     -104.91572      0.34279309   
   2050000   158.66503     -104.59228     -104.94093     -104.94093      0.3486541    
   2051000   155.47167     -104.7218      -105.06343     -105.06343      0.34163693   
   2052000   142.85604     -104.86956     -105.18348     -105.18348      0.31391508   
   2053000   147.23476     -104.81272     -105.13626     -105.13626      0.32353697   
   2054000   133.81806     -104.78785     -105.0819      -105.0819       0.29405482   
   2055000   133.98169     -104.83965     -105.13406     -105.13406      0.29441438   
   2056000   137.73676     -104.78992     -105.09258     -105.09258      0.30266586   
   2057000   131.69925     -104.8944      -105.18379     -105.18379      0.28939889   
   2058000   121.68315     -104.85712     -105.12451     -105.12451      0.26738929   
   2059000   124.3913      -104.94004     -105.21338     -105.21338      0.27334023   
   2060000   123.13464     -105.02593     -105.29651     -105.29651      0.27057883   
   2061000   114.55666     -104.82963     -105.08135     -105.08135      0.25172939   
   2062000   118.37938     -104.95131     -105.21144     -105.21144      0.26012951   
   2063000   111.73987     -104.98727     -105.23281     -105.23281      0.2455397    
   2064000   111.93203     -105.01478     -105.26074     -105.26074      0.24596196   
   2065000   106.78686     -105.05006     -105.28471     -105.28471      0.23465585   
   2066000   99.720017     -105.00837     -105.22749     -105.22749      0.21912701   
   2067000   96.004657     -105.02127     -105.23223     -105.23223      0.21096279   
   2068000   96.188184     -104.99755     -105.20892     -105.20892      0.21136608   
   2069000   92.1859       -105.05391     -105.25648     -105.25648      0.20257137   
   2070000   86.201016     -105.04223     -105.23165     -105.23165      0.18942005   
   2071000   86.918745     -104.99724     -105.18824     -105.18824      0.1909972    
   2072000   81.173333     -105.0475      -105.22587     -105.22587      0.1783721    
   2073000   83.754994     -105.15112     -105.33516     -105.33516      0.18404511   
   2074000   76.853481     -105.13067     -105.29955     -105.29955      0.16887957   
   2075000   74.4386       -105.10686     -105.27043     -105.27043      0.16357305   
   2076000   71.26412      -105.10578     -105.26238     -105.26238      0.15659738   
   2077000   70.93764      -105.17747     -105.33335     -105.33335      0.15587996   
   2078000   67.372769     -105.12171     -105.26975     -105.26975      0.14804644   
   2079000   64.72987      -105.17713     -105.31937     -105.31937      0.14223887   
   2080000   58.744018     -105.13394     -105.26302     -105.26302      0.12908543   
   2081000   56.964169     -105.22003     -105.3452      -105.3452       0.12517434   
   2082000   51.740592     -105.12942     -105.24312     -105.24312      0.11369594   
   2083000   50.807763     -105.25892     -105.37057     -105.37057      0.11164612   
   2084000   48.376581     -105.23568     -105.34199     -105.34199      0.10630379   
   2085000   45.311888     -105.2899      -105.38947     -105.38947      0.09956936   
   2086000   40.925956     -105.18197     -105.27191     -105.27191      0.089931615  
   2087000   38.341514     -105.28128     -105.36554     -105.36554      0.084252504  
   2088000   36.07376      -105.29116     -105.37043     -105.37043      0.07926929   
   2089000   32.507938     -105.34817     -105.41961     -105.41961      0.071433673  
   2090000   29.558968     -105.2821      -105.34705     -105.34705      0.06495354   
   2091000   26.997811     -105.33138     -105.3907      -105.3907       0.059325596  
   2092000   24.696655     -105.30394     -105.35821     -105.35821      0.054268985  
   2093000   21.282588     -105.36699     -105.41376     -105.41376      0.046766837  
   2094000   18.064761     -105.36891     -105.4086      -105.4086       0.039695911  
   2095000   15.137777     -105.4048      -105.43807     -105.43807      0.033264092  
   2096000   12.153281     -105.39624     -105.42295     -105.42295      0.026705893  
   2097000   9.3391608     -105.40208     -105.4226      -105.4226       0.020522082  
   2098000   6.3772556     -105.41892     -105.43293     -105.43293      0.014013525  
   2099000   3.3036102     -105.43838     -105.44564     -105.44564      0.0072594273 
   2100000   0.29212784    -105.44809     -105.44873     -105.44873      0.00064192828
   2100079   0.039419648   -105.44906     -105.44915     -105.44915      8.662162e-05 
Loop time of 40.7623 on 1 procs for 1000000 steps with 18 atoms

Performance: 211.960 ns/day, 0.113 hours/ns, 24532.442 timesteps/s, 441.584 katom-step/s
99.5% CPU use with 1 MPI tasks x 1 OpenMP threads

MPI task timing breakdown:
Section |  min time  |  avg time  |  max time  |%varavg| %total
---------------------------------------------------------------
Pair    | 36.274     | 36.274     | 36.274     |   0.0 | 88.99
Neigh   | 0.99383    | 0.99383    | 0.99383    |   0.0 |  2.44
Comm    | 0.64906    | 0.64906    | 0.64906    |   0.0 |  1.59
Output  | 0.21262    | 0.21262    | 0.21262    |   0.0 |  0.52
Modify  | 2.1568     | 2.1568     | 2.1568     |   0.0 |  5.29
Other   |            | 0.476      |            |       |  1.17

Nlocal:             18 ave          18 max          18 min
Histogram: 1 0 0 0 0 0 0 0 0 0
Nghost:             78 ave          78 max          78 min
Histogram: 1 0 0 0 0 0 0 0 0 0
Neighs:              0 ave           0 max           0 min
Histogram: 1 0 0 0 0 0 0 0 0 0
FullNghs:          300 ave         300 max         300 min
Histogram: 1 0 0 0 0 0 0 0 0 0

Total # of neighbors = 300
Ave neighs/atom = 16.666667
Neighbor list builds = 18154
Dangerous builds = 0
write_restart 	./endconf/endconf*3.restart
System init for write_restart ...

Total wall time: 0:01:16
