# LAMMPS input script to load a restart file and perform minimization

#============Initialization=================
units 			metal
atom_style 		atomic


# Read the restart file directly
read_restart 	endconf/endconf21000703.restart

#======Pair style for atom interactions=====
pair_style 		airebo 1.8 1 1
pair_coeff 		* * CH.airebo C

#=========Minimization settings==========
min_style       sd
minimize        1.0e-5 1.0e-7 500 1000


# Output the minimized structure
write_data minimized_structure.data
