LAMMPS (7 Feb 2024 - Update 1)
OMP_NUM_THREADS environment is not set. Defaulting to 1 thread. (src/comm.cpp:98)
  using 1 OpenMP thread(s) per MPI task
#============Initialization=================
units 			metal
atom_style 		atomic
boundary 		p p p

############################################
#              CLI Variables               #
############################################
variable 		seed index 200093          #
variable 		N index 10                  #
variable 		iter index 1000000         #
variable 		iterther index 100000      #
variable 		iexport index 1000         #
variable 		tempchauf index 3000       #
variable 		Tdamp index 0.001          #
variable 		timestep index 0.0001      #
variable 		box_size index 30		   #
############################################
############################################

#=========Simulation box definition=========
lattice 		sc 1.0
Lattice spacing in x,y,z = 1 1 1
region 			bigbox block 0 ${box_size} 0 ${box_size} 0 ${box_size}
region 			bigbox block 0 30 0 ${box_size} 0 ${box_size}
region 			bigbox block 0 30 0 30 0 ${box_size}
region 			bigbox block 0 30 0 30 0 30
create_box 		1 bigbox
Created orthogonal box = (0 0 0) to (30 30 30)
  1 by 1 by 1 MPI processor grid

#==================Atoms====================
region 			safezone block 6 9 6 9 6 9 units box
create_atoms 	1 random ${N} ${seed} safezone
create_atoms 	1 random 10 ${seed} safezone
create_atoms 	1 random 10 200093 safezone
Created 10 atoms
  using lattice units in orthogonal box = (0 0 0) to (30 30 30)
  create_atoms CPU = 0.002 seconds
mass 			* 12.01



#==========Velocity initialization==========
velocity 		all create 0.0000001 1563967 rot yes dist gaussian

#======Pair style for atom interactions=============
pair_style 		rebo
pair_coeff 		* * CH.rebo C
Reading rebo potential file CH.rebo with DATE: 2018-7-3

#==============Neighbor selection===================
neighbor 		0.3 bin
neigh_modify 	every 1 delay 0 check yes


#=====================Timestep======================
timestep 		${timestep}
timestep 		0.0001

#===============Define dump command=================
dump 			1 all cfg 100000 C100/dump/dump.tensile_*.cfg mass type xs ys zs vx vy vz id

#========System temperature printing info===========
thermo_style 	custom step temp etotal epair pe ke
thermo 			${iexport}
thermo 			1000



#====================CRC Cycle======================

#=============Condensation et chauffe===============
fix 			1 all nve
fix 			2 all temp/berendsen 0.0 ${tempchauf} ${Tdamp}
fix 			2 all temp/berendsen 0.0 3000 ${Tdamp}
fix 			2 all temp/berendsen 0.0 3000 0.001
fix             3 all momentum 1 linear 1 1 1 angular rescale

run 			${iter}
run 			1000000
Neighbor list info ...
  update: every = 1 steps, delay = 0 steps, check = yes
  max neighbors/atom: 2000, page size: 100000
  master list distance cutoff = 6.3
  ghost atom cutoff = 6.3
  binsize = 3.15, bins = 10 10 10
  1 neighbor lists, perpetual/occasional/extra = 1 0 0
  (1) pair rebo, perpetual
      attributes: full, newton on, ghost
      pair build: full/bin/ghost
      stencil: full/ghost/bin/3d
      bin: standard
Per MPI rank memory allocation (min/avg/max) = 3.888 | 3.888 | 3.888 Mbytes
   Step          Temp          TotEng         E_pair         PotEng         KinEng    
         0   1e-07          1605.9322      1605.9322      1605.9322      1.1633413e-10
      1000   11.729326     -37.111742     -37.125388     -37.125388      0.01364521   
      2000   9.7500454     -37.807699     -37.819041     -37.819041      0.011342631  
      3000   11.768155     -38.21658      -38.230271     -38.230271      0.013690381  
      4000   14.37427      -38.545077     -38.561799     -38.561799      0.016722182  
      5000   17.247752     -38.84226      -38.862325     -38.862325      0.020065022  
      6000   20.135618     -39.126498     -39.149923     -39.149923      0.023424596  
      7000   22.886681     -39.388365     -39.41499      -39.41499       0.026625021  
      8000   25.423042     -39.602136     -39.631712     -39.631712      0.029575674  
      9000   27.638796     -39.735988     -39.768141     -39.768141      0.032153353  
     10000   29.625518     -39.755046     -39.789511     -39.789511      0.034464589  
     11000   32.268615     -39.657827     -39.695366     -39.695366      0.037539413  
     12000   55.510887     -45.723849     -45.788427     -45.788427      0.064578107  
     13000   40.486626     -46.409654     -46.456754     -46.456754      0.047099764  
     14000   41.71323      -46.432502     -46.481029     -46.481029      0.048526723  
     15000   44.847154     -46.328025     -46.380197     -46.380197      0.052172547  
     16000   51.746605     -46.325862     -46.386061     -46.386061      0.060198963  
     17000   52.033251     -46.415407     -46.475939     -46.475939      0.06053243   
     18000   55.033893     -46.300638     -46.364662     -46.364662      0.064023201  
     19000   61.041656     -46.164265     -46.235278     -46.235278      0.071012279  
     20000   60.867334     -46.389507     -46.460316     -46.460316      0.070809483  
     21000   62.673244     -46.320992     -46.393903     -46.393903      0.072910373  
     22000   65.903909     -46.065106     -46.141775     -46.141775      0.07666874   
     23000   69.043188     -46.343594     -46.423915     -46.423915      0.080320792  
     24000   70.380708     -46.352952     -46.434828     -46.434828      0.081876785  
     25000   70.974621     -46.115208     -46.197776     -46.197776      0.082567709  
     26000   78.078093     -46.265014     -46.355845     -46.355845      0.09083147   
     27000   80.643465     -46.358865     -46.452681     -46.452681      0.093815874  
     28000   84.426227     -46.105628     -46.203845     -46.203845      0.098216517  
     29000   88.55659      -46.08243      -46.185451     -46.185451      0.10302154   
     30000   90.63383      -46.351883     -46.457321     -46.457321      0.10543808   
     31000   92.497915     -46.202408     -46.310014     -46.310014      0.10760664   
     32000   100.3996      -46.192168     -46.308967     -46.308967      0.116799     
     33000   99.73576      -46.352549     -46.468575     -46.468575      0.11602673   
     34000   100.53424     -46.204429     -46.321385     -46.321385      0.11695564   
     35000   107.09423     -46.219702     -46.344289     -46.344289      0.12458715   
     36000   107.47124     -46.329497     -46.454523     -46.454523      0.12502574   
     37000   109.67428     -46.102692     -46.230281     -46.230281      0.12758861   
     38000   116.78193     -46.241909     -46.377766     -46.377766      0.13585724   
     39000   116.43757     -46.298457     -46.433914     -46.433914      0.13545663   
     40000   120.66811     -46.116225     -46.256603     -46.256603      0.1403782    
     41000   124.63617     -46.290322     -46.435317     -46.435317      0.14499441   
     42000   123.95899     -46.256743     -46.400949     -46.400949      0.14420661   
     43000   127.91225     -46.108031     -46.256837     -46.256837      0.14880561   
     44000   131.76316     -46.297482     -46.450767     -46.450767      0.15328553   
     45000   131.6227      -46.13896      -46.292082     -46.292082      0.15312212   
     46000   140.11598     -46.127139     -46.290141     -46.290141      0.16300271   
     47000   141.11685     -46.279575     -46.443742     -46.443742      0.16416706   
     48000   146.06955     -46.101408     -46.271337     -46.271337      0.16992874   
     49000   148.84113     -46.199337     -46.37249      -46.37249       0.17315304   
     50000   149.07144     -46.249231     -46.422652     -46.422652      0.17342096   
     51000   152.13629     -46.052838     -46.229824     -46.229824      0.17698643   
     52000   156.89097     -46.247768     -46.430286     -46.430286      0.18251775   
     53000   155.94739     -46.155646     -46.337067     -46.337067      0.18142004   
     54000   165.90735     -46.087435     -46.280442     -46.280442      0.19300688   
     55000   164.79357     -46.264139     -46.45585      -46.45585       0.19171117   
     56000   168.36567     -46.060604     -46.256471     -46.256471      0.19586674   
     57000   172.11792     -46.171175     -46.371407     -46.371407      0.20023189   
     58000   172.99351     -46.206722     -46.407972     -46.407972      0.2012505    
     59000   176.55628     -46.039681     -46.245076     -46.245076      0.20539521   
     60000   180.59959     -46.211425     -46.421524     -46.421524      0.21009896   
     61000   180.50377     -46.100563     -46.31055      -46.31055       0.20998749   
     62000   187.88012     -46.051341     -46.26991      -46.26991       0.2185687    
     63000   189.83505     -46.215403     -46.436246     -46.436246      0.22084296   
     64000   190.76967     -46.033972     -46.255902     -46.255902      0.22193023   
     65000   196.27993     -46.145662     -46.374003     -46.374003      0.22834055   
     66000   194.6171      -46.143462     -46.369868     -46.369868      0.22640611   
     67000   203.4262      -46.008324     -46.244978     -46.244978      0.2366541    
     68000   203.5465      -46.186103     -46.422897     -46.422897      0.23679405   
     69000   206.29846     -46.043835     -46.28383      -46.28383       0.23999552   
     70000   212.43857     -46.048987     -46.296125     -46.296125      0.24713856   
     71000   213.12266     -46.174517     -46.422451     -46.422451      0.24793439   
     72000   213.38488     -45.983531     -46.231771     -46.231771      0.24823945   
     73000   219.54203     -46.141247     -46.39665      -46.39665       0.25540231   
     74000   218.60476     -46.056474     -46.310786     -46.310786      0.25431194   
     75000   229.05074     -45.981163     -46.247628     -46.247628      0.26646419   
     76000   228.99924     -46.164632     -46.431036     -46.431036      0.26640427   
     77000   229.33561     -45.971556     -46.238352     -46.238352      0.26679559   
     78000   235.51722     -46.056726     -46.330713     -46.330713      0.27398691   
     79000   235.86905     -46.078638     -46.353035     -46.353035      0.27439621   
     80000   241.25402     -45.967494     -46.248155     -46.248155      0.28066077   
     81000   242.94366     -46.138001     -46.420628     -46.420628      0.28262639   
     82000   244.74272     -45.940726     -46.225445     -46.225445      0.28471932   
     83000   250.99906     -46.009592     -46.301589     -46.301589      0.29199758   
     84000   250.30824     -46.109887     -46.401081     -46.401081      0.29119391   
     85000   253.06917     -45.919612     -46.214018     -46.214018      0.29440582   
     86000   258.05029     -46.111439     -46.411639     -46.411639      0.30020057   
     87000   260.60178     -45.945927     -46.249096     -46.249096      0.30316882   
     88000   267.34516     -45.98294      -46.293953     -46.293953      0.31101366   
     89000   265.99701     -46.10054      -46.409985     -46.409985      0.30944531   
     90000   270.33482     -45.888633     -46.203125     -46.203125      0.31449167   
     91000   273.88588     -46.050016     -46.368639     -46.368639      0.31862276   
     92000   274.5109      -45.991412     -46.310762     -46.310762      0.31934987   
     93000   279.88864     -45.938984     -46.26459      -46.26459       0.32560602   
     94000   282.4703      -46.088295     -46.416904     -46.416904      0.32860937   
     95000   286.01163     -45.877056     -46.209785     -46.209785      0.33272914   
     96000   288.36259     -46.039268     -46.374732     -46.374732      0.33546411   
     97000   288.08444     -45.981841     -46.316981     -46.316981      0.33514053   
     98000   297.31465     -45.907613     -46.253492     -46.253492      0.34587841   
     99000   294.76007     -46.065771     -46.408677     -46.408677      0.34290657   
    100000   298.58221     -45.857279     -46.204632     -46.204632      0.34735302   
    101000   304.41044     -45.994882     -46.349015     -46.349015      0.35413324   
    102000   304.56614     -45.968611     -46.322926     -46.322926      0.35431437   
    103000   308.36684     -45.901761     -46.260497     -46.260497      0.35873588   
    104000   311.80122     -46.034538     -46.397269     -46.397269      0.36273124   
    105000   315.11886     -45.823025     -46.189615     -46.189615      0.36659078   
    106000   322.05607     -45.977981     -46.352642     -46.352642      0.37466112   
    107000   318.48294     -45.970748     -46.341252     -46.341252      0.37050436   
    108000   324.10974     -45.87193      -46.24898      -46.24898       0.37705025   
    109000   326.70278     -45.999552     -46.379619     -46.379619      0.38006683   
    110000   330.25591     -45.861224     -46.245424     -46.245424      0.38420034   
    111000   334.98884     -45.980751     -46.370457     -46.370457      0.38970635   
    112000   332.86422     -45.920156     -46.307391     -46.307391      0.3872347    
    113000   339.49864     -45.851433     -46.246386     -46.246386      0.39495279   
    114000   342.4045      -45.986119     -46.384453     -46.384453      0.3983333    
    115000   344.86016     -45.805393     -46.206583     -46.206583      0.40119007   
    116000   350.00536     -45.948015     -46.355191     -46.355191      0.40717569   
    117000   348.90717     -45.898846     -46.304745     -46.304745      0.40589813   
    118000   356.27832     -45.790867     -46.20534      -46.20534       0.41447328   
    119000   359.87107     -45.96389      -46.382543     -46.382543      0.41865288   
    120000   362.2417      -45.830501     -46.251912     -46.251912      0.42141073   
    121000   362.37106     -45.961555     -46.383116     -46.383116      0.42156122   
    122000   363.94664     -45.85412      -46.277514     -46.277514      0.42339416   
    123000   371.59748     -45.820653     -46.252948     -46.252948      0.4322947    
    124000   371.98592     -45.949266     -46.382013     -46.382013      0.43274659   
    125000   375.35516     -45.745296     -46.181962     -46.181962      0.43666616   
    126000   379.17374     -45.924245     -46.365354     -46.365354      0.44110848   
    127000   378.93933     -45.834081     -46.274916     -46.274916      0.44083578   
    128000   384.96928     -45.803411     -46.251261     -46.251261      0.44785067   
    129000   387.34517     -45.948968     -46.399583     -46.399583      0.45061464   
    130000   390.92538     -45.787533     -46.242312     -46.242312      0.45477964   
    131000   394.08003     -45.91543      -46.37388      -46.37388       0.45844958   
    132000   395.24288     -45.815897     -46.275699     -46.275699      0.45980236   
    133000   400.49781     -45.837906     -46.303822     -46.303822      0.46591564   
    134000   400.79944     -45.862849     -46.329115     -46.329115      0.46626654   
    135000   412.57025     -45.713804     -46.193764     -46.193764      0.47996001   
    136000   410.42935     -45.885567     -46.363036     -46.363036      0.47746942   
    137000   408.48148     -45.71069      -46.185894     -46.185894      0.47520338   
    138000   417.66373     -45.823445     -46.30933      -46.30933       0.48588546   
    139000   415.25625     -45.770643     -46.253728     -46.253728      0.48308474   
    140000   429.63656     -45.596357     -46.096171     -46.096171      0.49981395   
    141000   417.81462     -45.862806     -46.348867     -46.348867      0.48606101   
    142000   424.81215     -45.66168      -46.155882     -46.155882      0.49420152   
    143000   429.40591     -45.717091     -46.216636     -46.216636      0.49954564   
    144000   422.50872     -45.739254     -46.230776     -46.230776      0.49152184   
    145000   444.15308     -45.427138     -45.943839     -45.943839      0.51670162   
    146000   441.51564     -45.744757     -46.25839      -46.25839       0.51363338   
    147000   441.65022     -45.632348     -46.146138     -46.146138      0.51378994   
    148000   453.52281     -45.531566     -46.059168     -46.059168      0.52760182   
    149000   450.16363     -45.868575     -46.392269     -46.392269      0.52369395   
    150000   445.50624     -45.512798     -46.031074     -46.031074      0.51827581   
    151000   454.78998     -45.658539     -46.187615     -46.187615      0.52907597   
    152000   444.40749     -45.762547     -46.279545     -46.279545      0.51699759   
    153000   461.72809     -45.35174      -45.888888     -45.888888      0.53714736   
    154000   465.77785     -45.681547     -46.223406     -46.223406      0.54185862   
    155000   464.33447     -45.621336     -46.161516     -46.161516      0.54017947   
    156000   474.10434     -45.415559     -45.967105     -45.967105      0.55154517   
    157000   470.66392     -45.847535     -46.395078     -46.395078      0.54754278   
    158000   467.63061     -45.55594      -46.099954     -46.099954      0.544014     
    159000   478.82578     -45.585916     -46.142954     -46.142954      0.5570378    
    160000   477.77381     -45.788052     -46.343866     -46.343866      0.55581401   
    161000   482.98644     -45.468259     -46.030137     -46.030137      0.56187808   
    162000   486.7588      -45.734609     -46.300875     -46.300875      0.56626661   
    163000   491.50954     -45.600939     -46.172732     -46.172732      0.57179335   
    164000   493.22475     -45.498919     -46.072708     -46.072708      0.57378872   
    165000   494.06895     -45.823582     -46.398353     -46.398353      0.57477082   
    166000   498.45763     -45.396319     -45.976195     -45.976195      0.57987635   
    167000   503.91627     -45.529056     -46.115283     -46.115283      0.58622661   
    168000   496.24664     -45.733414     -46.310719     -46.310719      0.57730421   
    169000   511.2039      -45.337198     -45.931903     -45.931903      0.59470461   
    170000   510.7514      -45.74581      -46.339988     -46.339988      0.5941782    
    171000   510.9749      -45.617658     -46.212096     -46.212096      0.59443821   
    172000   530.19626     -45.389374     -46.006173     -46.006173      0.61679921   
    173000   515.06594     -45.767099     -46.366297     -46.366297      0.59919748   
    174000   515.14862     -45.422237     -46.021531     -46.021531      0.59929367   
    175000   530.72865     -45.482855     -46.100274     -46.100274      0.61741856   
    176000   529.90424     -45.730154     -46.346613     -46.346613      0.61645949   
    177000   534.98807     -45.419847     -46.04222      -46.04222       0.62237372   
    178000   532.05778     -45.708031     -46.326996     -46.326996      0.6189648    
    179000   532.0161      -45.594818     -46.213735     -46.213735      0.6189163    
    180000   540.8654      -45.49868      -46.127891     -46.127891      0.62921106   
    181000   542.99731     -45.761075     -46.392767     -46.392767      0.63169119   
    182000   547.37146     -45.439098     -46.075878     -46.075878      0.63677983   
    183000   550.16051     -45.651954     -46.291978     -46.291978      0.64002445   
    184000   545.80388     -45.597884     -46.232841     -46.232841      0.6349562    
    185000   559.75079     -45.311158     -45.96234      -45.96234       0.65118121   
    186000   559.32388     -45.74271      -46.393395     -46.393395      0.65068458   
    187000   555.32028     -45.36831      -46.014337     -46.014337      0.64602702   
    188000   563.98041     -45.382743     -46.038845     -46.038845      0.65610171   
    189000   565.65265     -45.724055     -46.382103     -46.382103      0.65804709   
    190000   565.14312     -45.201106     -45.85856      -45.85856       0.65745434   
    191000   577.50935     -45.545694     -46.217535     -46.217535      0.67184048   
    192000   567.75779     -45.612639     -46.273136     -46.273136      0.66049609   
    193000   578.93536     -45.236659     -45.910158     -45.910158      0.67349942   
    194000   585.97878     -45.661475     -46.343169     -46.343169      0.68169332   
    195000   580.71966     -45.482778     -46.158353     -46.158353      0.67557517   
    196000   585.70214     -45.436924     -46.118296     -46.118296      0.68137149   
    197000   589.00785     -45.621788     -46.307006     -46.307006      0.68521716   
    198000   598.78489     -45.347582     -46.044173     -46.044173      0.69659119   
    199000   601.65663     -45.618535     -46.318467     -46.318467      0.69993201   
    200000   597.13252     -45.540615     -46.235284     -46.235284      0.69466893   
    201000   601.11036     -45.419273     -46.11857      -46.11857       0.69929652   
    202000   606.49589     -45.565552     -46.271114     -46.271114      0.70556172   
    203000   613.45362     -45.270868     -45.984524     -45.984524      0.71365594   
    204000   622.49321     -45.49392      -46.218092     -46.218092      0.72417206   
    205000   612.12563     -45.495572     -46.207683     -46.207683      0.71211103   
    206000   619.6052      -45.320241     -46.041053     -46.041053      0.72081232   
    207000   622.12117     -45.623836     -46.347575     -46.347575      0.72373926   
    208000   621.22944     -45.375303     -46.098004     -46.098004      0.72270187   
    209000   632.67843     -45.442441     -46.178462     -46.178462      0.73602096   
    210000   629.11691     -45.549052     -46.28093      -46.28093       0.73187768   
    211000   633.19602     -45.270741     -46.007364     -46.007364      0.73662309   
    212000   637.20582     -45.616357     -46.357645     -46.357645      0.74128785   
    213000   633.24516     -45.348304     -46.084984     -46.084984      0.73668026   
    214000   643.31533     -45.299531     -46.047926     -46.047926      0.74839529   
    215000   644.46716     -45.556347     -46.306082     -46.306082      0.74973527   
    216000   646.53253     -45.063407     -45.815545     -45.815545      0.75213799   
    217000   656.60768     -45.495361     -46.25922      -46.25922       0.76385884   
    218000   648.29401     -45.446695     -46.200883     -46.200883      0.7541872    
    219000   657.5199      -44.978602     -45.743522     -45.743522      0.76492006   
    220000   666.84841     -45.559707     -46.335479     -46.335479      0.7757723    
    221000   657.78879     -45.297601     -46.062834     -46.062834      0.76523287   
    222000   667.51561     -45.269421     -46.045969     -46.045969      0.77654849   
    223000   668.10905     -45.593178     -46.370417     -46.370417      0.77723885   
    224000   673.48401     -45.116608     -45.900099     -45.900099      0.78349176   
    225000   676.9972      -45.464606     -46.252184     -46.252184      0.7875788    
    226000   677.54338     -45.353549     -46.141763     -46.141763      0.7882142    
    227000   686.1506      -45.287819     -46.086046     -46.086046      0.79822733   
    228000   681.18267     -45.573834     -46.366282     -46.366282      0.79244794   
    229000   682.13587     -45.222346     -46.015903     -46.015903      0.79355684   
    230000   685.8171      -45.469238     -46.267078     -46.267078      0.79783936   
    231000   688.25489     -45.27995      -46.080626     -46.080626      0.80067534   
    232000   701.89357     -45.279305     -46.095847     -46.095847      0.81654178   
    233000   700.17234     -45.482249     -46.296788     -46.296788      0.8145394    
    234000   701.92046     -45.271064     -46.087637     -46.087637      0.81657306   
    235000   695.50665     -45.439491     -46.248603     -46.248603      0.80911161   
    236000   692.65626     -45.199035     -46.004831     -46.004831      0.80579564   
    237000   716.95455     -45.27834      -46.112403     -46.112403      0.83406284   
    238000   717.22353     -45.295081     -46.129457     -46.129457      0.83437576   
    239000   722.78604     -45.185218     -46.026065     -46.026065      0.84084685   
    240000   706.03729     -45.467464     -46.288826     -46.288826      0.82136234   
    241000   713.96741     -45.144383     -45.97497      -45.97497       0.83058778   
    242000   724.12068     -45.325528     -46.167927     -46.167927      0.8423995    
    243000   722.69011     -45.286653     -46.127388     -46.127388      0.84073525   
    244000   741.21804     -45.299576     -46.161866     -46.161866      0.86228957   
    245000   732.72565     -45.424743     -46.277153     -46.277153      0.85241001   
    246000   734.47679     -45.199219     -46.053667     -46.053667      0.85444718   
    247000   738.01031     -45.40035      -46.258908     -46.258908      0.85855788   
    248000   745.28605     -45.299756     -46.166778     -46.166778      0.86702205   
    249000   748.01196     -45.377026     -46.247219     -46.247219      0.87019321   
    250000   749.87415     -45.4008       -46.273159     -46.273159      0.87235957   
    251000   748.43249     -45.218626     -46.089309     -46.089309      0.87068243   
    252000   753.10861     -45.31163      -46.187753     -46.187753      0.87612235   
    253000   762.79258     -45.019691     -45.907079     -45.907079      0.88738811   
    254000   767.77876     -45.464761     -46.35795      -46.35795       0.89318875   
    255000   767.70331     -45.330456     -46.223557     -46.223557      0.89310097   
    256000   766.80769     -45.265564     -46.157623     -46.157623      0.89205905   
    257000   768.08378     -45.401021     -46.294565     -46.294565      0.89354358   
    258000   773.68609     -45.017649     -45.91771      -45.91771       0.90006098   
    259000   780.38749     -45.379802     -46.287659     -46.287659      0.907857     
    260000   780.61697     -45.197219     -46.105343     -46.105343      0.90812397   
    261000   784.0495      -45.349219     -46.261336     -46.261336      0.91211717   
    262000   784.71549     -45.404414     -46.317306     -46.317306      0.91289194   
    263000   787.10427     -45.086875     -46.002546     -46.002546      0.9156709    
    264000   793.1021      -45.304408     -46.227056     -46.227056      0.92264843   
    265000   800.47403     -45.091694     -46.022918     -46.022918      0.93122451   
    266000   808.06324     -45.344472     -46.284525     -46.284525      0.94005335   
    267000   797.76604     -45.252089     -46.180163     -46.180163      0.92807418   
    268000   800.7105      -45.271387     -46.202887     -46.202887      0.93149959   
    269000   803.6971      -45.412341     -46.347315     -46.347315      0.93497403   
    270000   807.01076     -45.112485     -46.051314     -46.051314      0.93882895   
    271000   812.6225      -45.428882     -46.37424      -46.37424       0.94535732   
    272000   820.66241     -45.071227     -46.025937     -46.025937      0.95471048   
    273000   820.38838     -45.336993     -46.291385     -46.291385      0.95439169   
    274000   817.53143     -45.27355      -46.224618     -46.224618      0.95106808   
    275000   815.17451     -45.030968     -45.979294     -45.979294      0.94832618   
    276000   829.00414     -45.371268     -46.335683     -46.335683      0.96441476   
    277000   837.83816     -45.055057     -46.029749     -46.029749      0.97469174   
    278000   838.55222     -45.331512     -46.307034     -46.307034      0.97552244   
    279000   831.33353     -45.289945     -46.25707      -46.25707       0.96712464   
    280000   833.8703      -45.129719     -46.099795     -46.099795      0.97007576   
    281000   842.20083     -45.342579     -46.322346     -46.322346      0.97976702   
    282000   852.18011     -45.09158      -46.082956     -46.082956      0.99137632   
    283000   848.84832     -45.342918     -46.330419     -46.330419      0.98750031   
    284000   850.06961     -45.222191     -46.211112     -46.211112      0.98892109   
    285000   854.49171     -45.219516     -46.213582     -46.213582      0.9940655    
    286000   855.87212     -45.340802     -46.336474     -46.336474      0.99567139   
    287000   861.32879     -45.049941     -46.05196      -46.05196       1.0020194    
    288000   868.58517     -45.253157     -46.263618     -46.263618      1.010461     
    289000   868.93235     -45.101231     -46.112096     -46.112096      1.0108649    
    290000   868.64908     -45.161338     -46.171873     -46.171873      1.0105354    
    291000   870.457       -45.231283     -46.243921     -46.243921      1.0126386    
    292000   880.39656     -45.128942     -46.153144     -46.153144      1.0242017    
    293000   879.95717     -45.304026     -46.327717     -46.327717      1.0236905    
    294000   879.00008     -45.094744     -46.117321     -46.117321      1.0225771    
    295000   885.96547     -45.167923     -46.198603     -46.198603      1.0306802    
    296000   889.00566     -45.127405     -46.161622     -46.161622      1.034217     
    297000   897.20489     -45.250993     -46.294748     -46.294748      1.0437555    
    298000   890.51417     -45.289451     -46.325423     -46.325423      1.0359719    
    299000   895.36362     -45.189596     -46.23121      -46.23121       1.0416135    
    300000   898.69488     -45.208304     -46.253793     -46.253793      1.0454889    
    301000   912.72704     -45.055334     -46.117147     -46.117147      1.0618131    
    302000   910.43007     -45.288677     -46.347818     -46.347818      1.0591409    
    303000   904.60959     -45.183604     -46.235974     -46.235974      1.0523697    
    304000   909.99554     -45.234921     -46.293557     -46.293557      1.0586354    
    305000   915.27004     -45.148347     -46.213118     -46.213118      1.0647714    
    306000   916.3437      -45.000095     -46.066116     -46.066116      1.0660205    
    307000   930.12517     -45.083219     -46.165272     -46.165272      1.082053     
    308000   930.89904     -45.065124     -46.148077     -46.148077      1.0829533    
    309000   921.60452     -45.203837     -46.275978     -46.275978      1.0721406    
    310000   921.6834      -45.099962     -46.172194     -46.172194      1.0722324    
    311000   932.32936     -45.096483     -46.181101     -46.181101      1.0846173    
    312000   936.44986     -45.172374     -46.261784     -46.261784      1.0894108    
    313000   943.80177     -45.105159     -46.203122     -46.203122      1.0979636    
    314000   943.75507     -45.10363      -46.20154      -46.20154       1.0979093    
    315000   946.89483     -45.083483     -46.185045     -46.185045      1.1015619    
    316000   945.6975      -45.231172     -46.331341     -46.331341      1.100169     
    317000   951.62721     -45.201077     -46.308144     -46.308144      1.1070672    
    318000   944.73404     -45.166073     -46.265121     -46.265121      1.0990481    
    319000   952.61308     -45.091058     -46.199272     -46.199272      1.1082141    
    320000   966.6482      -45.121629     -46.246171     -46.246171      1.1245418    
    321000   968.3624      -45.108858     -46.235394     -46.235394      1.126536     
    322000   966.67838     -45.087898     -46.212475     -46.212475      1.1245769    
    323000   963.25969     -45.089822     -46.210422     -46.210422      1.1205998    
    324000   966.6606      -44.976705     -46.101261     -46.101261      1.1245562    
    325000   973.7626      -45.033829     -46.166647     -46.166647      1.1328183    
    326000   981.76359     -45.069681     -46.211807     -46.211807      1.1421261    
    327000   988.42508     -45.17735      -46.327225     -46.327225      1.1498757    
    328000   979.17462     -45.093443     -46.232558     -46.232558      1.1391143    
    329000   980.29527     -44.995694     -46.136112     -46.136112      1.140418     
    330000   992.91767     -45.1137       -46.268802     -46.268802      1.1551021    
    331000   994.18196     -45.09213      -46.248703     -46.248703      1.1565729    
    332000   993.56825     -45.166318     -46.322177     -46.322177      1.155859     
    333000   1003.7002     -45.025067     -46.192713     -46.192713      1.1676459    
    334000   1003.9675     -45.096336     -46.264292     -46.264292      1.1679568    
    335000   996.2979      -45.052048     -46.211083     -46.211083      1.1590345    
    336000   1004.5755     -44.992862     -46.161526     -46.161526      1.1686642    
    337000   1013.3972     -45.019839     -46.198766     -46.198766      1.1789268    
    338000   1018.8907     -44.995169     -46.180487     -46.180487      1.1853177    
    339000   1018.3124     -45.081546     -46.266191     -46.266191      1.1846448    
    340000   1020.0953     -44.982504     -46.169223     -46.169223      1.1867189    
    341000   1022.556      -45.05967      -46.249252     -46.249252      1.1895816    
    342000   1020.7638     -45.039021     -46.226517     -46.226517      1.1874967    
    343000   1029.0674     -45.024962     -46.222119     -46.222119      1.1971566    
    344000   1035.8795     -45.054078     -46.259159     -46.259159      1.2050814    
    345000   1035.4832     -45.052331     -46.256951     -46.256951      1.2046203    
    346000   1039.9501     -45.08684      -46.296657     -46.296657      1.2098169    
    347000   1042.1917     -44.968247     -46.180671     -46.180671      1.2124246    
    348000   1038.1959     -45.03623      -46.244006     -46.244006      1.2077762    
    349000   1041.249      -44.959998     -46.171326     -46.171326      1.2113279    
    350000   1045.3266     -44.952469     -46.168541     -46.168541      1.2160716    
    351000   1057.7341     -44.93829      -46.168796     -46.168796      1.2305058    
    352000   1065.5803     -44.92991      -46.169543     -46.169543      1.2396336    
    353000   1061.8572     -45.004637     -46.239939     -46.239939      1.2353024    
    354000   1062.5126     -44.953506     -46.189571     -46.189571      1.2360648    
    355000   1061.4424     -44.987422     -46.222242     -46.222242      1.2348197    
    356000   1064.3508     -44.968542     -46.206745     -46.206745      1.2382033    
    357000   1073.7209     -45.011348     -46.260451     -46.260451      1.2491038    
    358000   1076.3024     -45.003517     -46.255624     -46.255624      1.252107     
    359000   1078.5317     -45.016195     -46.270896     -46.270896      1.2547005    
    360000   1077.5339     -45.063267     -46.316807     -46.316807      1.2535397    
    361000   1084.4424     -44.967575     -46.229152     -46.229152      1.2615767    
    362000   1086.6877     -45.001047     -46.265236     -46.265236      1.2641886    
    363000   1087.7234     -44.949126     -46.214519     -46.214519      1.2653935    
    364000   1090.5928     -44.956758     -46.22549      -46.22549       1.2687316    
    365000   1096.4389     -44.843803     -46.119336     -46.119336      1.2755326    
    366000   1103.6647     -44.928028     -46.211966     -46.211966      1.2839387    
    367000   1098.4779     -44.821017     -46.098922     -46.098922      1.2779047    
    368000   1103.9666     -44.860187     -46.144477     -46.144477      1.28429      
    369000   1108.7058     -44.926505     -46.216308     -46.216308      1.2898032    
    370000   1107.6085     -44.836637     -46.125164     -46.125164      1.2885267    
    371000   1112.0818     -44.947438     -46.241169     -46.241169      1.2937307    
    372000   1117.1743     -44.850178     -46.149833     -46.149833      1.299655     
    373000   1122.3038     -45.015005     -46.320628     -46.320628      1.3056224    
    374000   1121.388      -44.958864     -46.263421     -46.263421      1.304557     
    375000   1120.4723     -44.993282     -46.296774     -46.296774      1.3034917    
    376000   1127.8187     -44.91714      -46.229179     -46.229179      1.3120381    
    377000   1131.4327     -44.93127      -46.247512     -46.247512      1.3162424    
    378000   1131.0986     -44.964583     -46.280437     -46.280437      1.3158538    
    379000   1139.3583     -44.903346     -46.228809     -46.228809      1.3254625    
    380000   1143.8582     -45.016262     -46.346959     -46.346959      1.3306975    
    381000   1143.2037     -44.867477     -46.197413     -46.197413      1.3299361    
    382000   1142.4368     -44.862098     -46.191142     -46.191142      1.3290439    
    383000   1150.3043     -44.864813     -46.203009     -46.203009      1.3381965    
    384000   1153.9456     -44.829447     -46.171879     -46.171879      1.3424326    
    385000   1152.4487     -44.883856     -46.224548     -46.224548      1.3406912    
    386000   1164.535      -44.850775     -46.205527     -46.205527      1.3547516    
    387000   1164.3445     -44.845087     -46.199617     -46.199617      1.3545301    
    388000   1163.3923     -44.863302     -46.216724     -46.216724      1.3534223    
    389000   1166.8774     -44.774134     -46.131611     -46.131611      1.3574767    
    390000   1171.5445     -44.789851     -46.152757     -46.152757      1.3629062    
    391000   1177.295      -44.923268     -46.292864     -46.292864      1.3695959    
    392000   1170.7289     -44.813244     -46.175202     -46.175202      1.3619572    
    393000   1178.372      -44.872575     -46.243423     -46.243423      1.3708489    
    394000   1183.8757     -44.869498     -46.246749     -46.246749      1.3772515    
    395000   1182.3187     -44.863233     -46.238673     -46.238673      1.3754401    
    396000   1187.9253     -44.876722     -46.258684     -46.258684      1.3819626    
    397000   1192.81       -44.886397     -46.274042     -46.274042      1.3876451    
    398000   1193.0326     -44.95841      -46.346314     -46.346314      1.3879041    
    399000   1194.1558     -44.774272     -46.163483     -46.163483      1.3892107    
    400000   1199.857      -44.889424     -46.285268     -46.285268      1.3958432    
    401000   1204.8785     -44.836696     -46.23838      -46.23838       1.401685     
    402000   1205.6361     -44.863996     -46.266562     -46.266562      1.4025663    
    403000   1214.5962     -44.777437     -46.190427     -46.190427      1.4129899    
    404000   1214.3232     -44.802373     -46.215046     -46.215046      1.4126723    
    405000   1208.6015     -44.813863     -46.219879     -46.219879      1.406016     
    406000   1221.571      -44.734624     -46.155728     -46.155728      1.4211041    
    407000   1221.8285     -44.783109     -46.204512     -46.204512      1.4214035    
    408000   1219.3544     -44.745537     -46.164063     -46.164063      1.4185253    
    409000   1221.2189     -44.787498     -46.208192     -46.208192      1.4206944    
    410000   1231.6805     -44.725476     -46.158341     -46.158341      1.4328648    
    411000   1236.7569     -44.838607     -46.277378     -46.277378      1.4387704    
    412000   1236.9853     -44.743864     -46.1829       -46.1829        1.4390361    
    413000   1243.3094     -44.770689     -46.217082     -46.217082      1.4463932    
    414000   1239.7258     -44.840542     -46.282766     -46.282766      1.4422242    
    415000   1243.0162     -44.832723     -46.278775     -46.278775      1.446052     
    416000   1247.3942     -44.867331     -46.318477     -46.318477      1.4511452    
    417000   1254.3623     -44.780802     -46.240053     -46.240053      1.4592514    
    418000   1253.854      -44.870035     -46.328695     -46.328695      1.4586601    
    419000   1251.4099     -44.71327      -46.169087     -46.169087      1.4558168    
    420000   1264.079      -44.759861     -46.230416     -46.230416      1.4705553    
    421000   1262.982      -44.717981     -46.18726      -46.18726       1.4692791    
    422000   1264.6683     -44.744665     -46.215906     -46.215906      1.4712409    
    423000   1265.8218     -44.793693     -46.266275     -46.266275      1.4725828    
    424000   1270.8595     -44.708948     -46.187391     -46.187391      1.4784434    
    425000   1270.7975     -44.760163     -46.238534     -46.238534      1.4783713    
    426000   1278.8496     -44.60404      -46.091779     -46.091779      1.4877386    
    427000   1281.7729     -44.693966     -46.185106     -46.185106      1.4911394    
    428000   1279.2854     -44.648614     -46.13686      -46.13686       1.4882456    
    429000   1287.5726     -44.596938     -46.094824     -46.094824      1.4978864    
    430000   1290.5315     -44.688878     -46.190207     -46.190207      1.5013286    
    431000   1291.9338     -44.748629     -46.251589     -46.251589      1.5029599    
    432000   1294.9542     -44.749881     -46.256355     -46.256355      1.5064737    
    433000   1304.6088     -44.684881     -46.202586     -46.202586      1.5177053    
    434000   1303.7165     -44.810617     -46.327284     -46.327284      1.5166672    
    435000   1299.334      -44.623934     -46.135503     -46.135503      1.5115689    
    436000   1311.2852     -44.743158     -46.268631     -46.268631      1.5254722    
    437000   1311.2705     -44.725403     -46.250858     -46.250858      1.5254552    
    438000   1312.8609     -44.789158     -46.316463     -46.316463      1.5273053    
    439000   1311.7371     -44.690455     -46.216453     -46.216453      1.5259979    
    440000   1324.0585     -44.684399     -46.224731     -46.224731      1.5403319    
    441000   1321.5018     -44.732435     -46.269793     -46.269793      1.5373576    
    442000   1322.2076     -44.582882     -46.12106      -46.12106       1.5381787    
    443000   1333.8495     -44.786891     -46.338613     -46.338613      1.5517222    
    444000   1328.0012     -44.641475     -46.186393     -46.186393      1.5449187    
    445000   1333.7032     -44.704911     -46.256463     -46.256463      1.5515521    
    446000   1337.3827     -44.534101     -46.089934     -46.089934      1.5558325    
    447000   1343.1051     -44.569535     -46.132024     -46.132024      1.5624897    
    448000   1338.5968     -44.730628     -46.287872     -46.287872      1.5572449    
    449000   1350.9456     -44.581881     -46.153491     -46.153491      1.5716108    
    450000   1343.8233     -44.782097     -46.345422     -46.345422      1.5633251    
    451000   1350.1914     -44.489351     -46.060085     -46.060085      1.5707334    
    452000   1362.2516     -44.693634     -46.278397     -46.278397      1.5847636    
    453000   1358.9561     -44.579977     -46.160906     -46.160906      1.5809298    
    454000   1359.8112     -44.714013     -46.295938     -46.295938      1.5819245    
    455000   1366.5551     -44.521222     -46.110992     -46.110992      1.58977      
    456000   1372.7316     -44.578331     -46.175286     -46.175286      1.5969554    
    457000   1368.8243     -44.699651     -46.292061     -46.292061      1.5924099    
    458000   1376.5796     -44.463793     -46.065224     -46.065224      1.6014319    
    459000   1379.0864     -44.754838     -46.359187     -46.359187      1.6043481    
    460000   1380.5544     -44.536199     -46.142255     -46.142255      1.6060559    
    461000   1377.5782     -44.544347     -46.146941     -46.146941      1.6025937    
    462000   1389.6445     -44.612898     -46.229529     -46.229529      1.6166309    
    463000   1388.791      -44.7073       -46.322938     -46.322938      1.6156379    
    464000   1386.058      -44.662863     -46.275322     -46.275322      1.6124586    
    465000   1399.4988     -44.514578     -46.142673     -46.142673      1.6280948    
    466000   1398.7665     -44.703331     -46.330574     -46.330574      1.6272429    
    467000   1404.1386     -44.500985     -46.134478     -46.134478      1.6334925    
    468000   1404.0315     -44.719294     -46.352661     -46.352661      1.6333678    
    469000   1402.0668     -44.588826     -46.219908     -46.219908      1.6310823    
    470000   1407.1684     -44.638128     -46.275146     -46.275146      1.6370171    
    471000   1417.7986     -44.477909     -46.127293     -46.127293      1.6493837    
    472000   1425.1967     -44.565692     -46.223682     -46.223682      1.6579902    
    473000   1411.128      -44.633403     -46.275026     -46.275026      1.6416235    
    474000   1419.9687     -44.407435     -46.059344     -46.059344      1.6519083    
    475000   1421.45       -44.654714     -46.308345     -46.308345      1.6536315    
    476000   1425.2133     -44.407708     -46.065717     -46.065717      1.6580095    
    477000   1436.3809     -44.623422     -46.294423     -46.294423      1.6710012    
    478000   1432.8008     -44.538075     -46.204911     -46.204911      1.6668363    
    479000   1434.852      -44.455893     -46.125116     -46.125116      1.6692226    
    480000   1439.1663     -44.619826     -46.294068     -46.294068      1.6742416    
    481000   1446.9505     -44.469246     -46.152543     -46.152543      1.6832973    
    482000   1440.5732     -44.677622     -46.353501     -46.353501      1.6758783    
    483000   1450.307      -44.432236     -46.119438     -46.119438      1.6872021    
    484000   1454.7868     -44.68882      -46.381233     -46.381233      1.6924136    
    485000   1451.8882     -44.55246      -46.241501     -46.241501      1.6890415    
    486000   1460.1244     -44.541323     -46.239946     -46.239946      1.698623     
    487000   1463.2811     -44.661702     -46.363997     -46.363997      1.7022953    
    488000   1460.452      -44.50532      -46.204324     -46.204324      1.6990041    
    489000   1463.0092     -44.659523     -46.361502     -46.361502      1.701979     
    490000   1471.3139     -44.407262     -46.118902     -46.118902      1.7116402    
    491000   1473.6572     -44.600634     -46.315        -46.315         1.7143663    
    492000   1474.3796     -44.449442     -46.164649     -46.164649      1.7152067    
    493000   1480.0795     -44.561841     -46.283679     -46.283679      1.7218376    
    494000   1474.7773     -44.477968     -46.193637     -46.193637      1.7156694    
    495000   1489.2604     -44.303813     -46.036331     -46.036331      1.7325181    
    496000   1491.1153     -44.657999     -46.392675     -46.392675      1.7346761    
    497000   1488.4039     -44.319307     -46.050829     -46.050829      1.7315217    
    498000   1496.6507     -44.48647      -46.227586     -46.227586      1.7411156    
    499000   1501.415      -44.385977     -46.132635     -46.132635      1.7466581    
    500000   1506.4811     -44.409025     -46.161576     -46.161576      1.7525516    
    501000   1499.4073     -44.49932      -46.243643     -46.243643      1.7443224    
    502000   1508.1874     -44.352424     -46.106961     -46.106961      1.7545367    
    503000   1508.0525     -44.522155     -46.276535     -46.276535      1.7543798    
    504000   1516.8819     -44.27065      -46.035301     -46.035301      1.7646514    
    505000   1521.2403     -44.561733     -46.331455     -46.331455      1.7697216    
    506000   1513.2762     -44.363405     -46.123862     -46.123862      1.7604567    
    507000   1530.9733     -44.365311     -46.146356     -46.146356      1.7810445    
    508000   1527.6949     -44.586616     -46.363847     -46.363847      1.7772306    
    509000   1526.3082     -44.330989     -46.106606     -46.106606      1.7756174    
    510000   1535.591      -44.598132     -46.384548     -46.384548      1.7864165    
    511000   1533.0161     -44.320099     -46.10352      -46.10352       1.7834209    
    512000   1537.9891     -44.525616     -46.314822     -46.314822      1.7892063    
    513000   1536.5873     -44.370783     -46.158358     -46.158358      1.7875754    
    514000   1542.821      -44.45108      -46.245907     -46.245907      1.7948275    
    515000   1538.464      -44.467828     -46.257587     -46.257587      1.7897587    
    516000   1552.9755     -44.210756     -46.017396     -46.017396      1.8066405    
    517000   1551.1749     -44.608298     -46.412844     -46.412844      1.8045458    
    518000   1554.467      -44.282536     -46.090912     -46.090912      1.8083757    
    519000   1557.4119     -44.5065       -46.318301     -46.318301      1.8118016    
    520000   1552.8373     -44.426229     -46.232709     -46.232709      1.8064797    
    521000   1565.4892     -44.373159     -46.194357     -46.194357      1.8211982    
    522000   1564.0012     -44.551637     -46.371104     -46.371104      1.8194672    
    523000   1569.5079     -44.328796     -46.154669     -46.154669      1.8258734    
    524000   1574.402      -44.509303     -46.340869     -46.340869      1.8315669    
    525000   1579.6359     -44.31182      -46.149476     -46.149476      1.8376557    
    526000   1571.1211     -44.541436     -46.369186     -46.369186      1.8277501    
    527000   1580.3804     -44.297399     -46.135921     -46.135921      1.8385218    
    528000   1589.0156     -44.420003     -46.268571     -46.268571      1.8485675    
    529000   1580.479      -44.38696      -46.225597     -46.225597      1.8386365    
    530000   1594.5777     -44.224355     -46.079393     -46.079393      1.8550382    
    531000   1590.6238     -44.560574     -46.411012     -46.411012      1.8504384    
    532000   1590.9778     -44.189211     -46.040061     -46.040061      1.8508502    
    533000   1602.4293     -44.44774      -46.311912     -46.311912      1.8641722    
    534000   1594.8695     -44.368024     -46.223402     -46.223402      1.8553775    
    535000   1607.4097     -44.33503      -46.204996     -46.204996      1.8699661    
    536000   1608.1401     -44.44791      -46.318726     -46.318726      1.8708158    
    537000   1607.5452     -44.260589     -46.130713     -46.130713      1.8701238    
    538000   1611.5606     -44.471768     -46.346563     -46.346563      1.874795     
    539000   1611.1588     -44.310017     -46.184344     -46.184344      1.8743275    
    540000   1619.3927     -44.394955     -46.278861     -46.278861      1.8839064    
    541000   1625.8307     -44.334616     -46.226012     -46.226012      1.891396     
    542000   1627.7696     -44.408717     -46.302369     -46.302369      1.8936516    
    543000   1618.7692     -44.428036     -46.311217     -46.311217      1.883181     
    544000   1635.5102     -44.26923      -46.171886     -46.171886      1.9026565    
    545000   1630.2093     -44.462406     -46.358896     -46.358896      1.8964898    
    546000   1637.4846     -44.136168     -46.041122     -46.041122      1.9049535    
    547000   1649.4807     -44.461748     -46.380657     -46.380657      1.918909     
    548000   1635.6086     -44.260152     -46.162923     -46.162923      1.902771     
    549000   1645.7886     -44.280775     -46.195389     -46.195389      1.9146138    
    550000   1644.5218     -44.349746     -46.262886     -46.262886      1.9131401    
    551000   1656.8625     -44.11033      -46.037827     -46.037827      1.9274966    
    552000   1661.6038     -44.427074     -46.360086     -46.360086      1.9330123    
    553000   1656.821      -44.214627     -46.142075     -46.142075      1.9274483    
    554000   1664.4241     -44.363046     -46.299339     -46.299339      1.9362933    
    555000   1663.7876     -44.309732     -46.245285     -46.245285      1.9355529    
    556000   1663.1865     -44.283531     -46.218385     -46.218385      1.9348535    
    557000   1671.9043     -44.341358     -46.286353     -46.286353      1.9449954    
    558000   1677.8841     -44.264737     -46.216689     -46.216689      1.9519519    
    559000   1678.6886     -44.430694     -46.383582     -46.383582      1.9528878    
    560000   1677.6285     -44.230282     -46.181937     -46.181937      1.9516545    
    561000   1678.5015     -44.387559     -46.34023      -46.34023       1.9526702    
    562000   1682.1041     -44.231946     -46.188808     -46.188808      1.9568611    
    563000   1696.951      -44.280355     -46.254488     -46.254488      1.9741332    
    564000   1691.1477     -44.309121     -46.276503     -46.276503      1.9673819    
    565000   1697.7401     -44.25429      -46.229341     -46.229341      1.9750512    
    566000   1700.0771     -44.375668     -46.353438     -46.353438      1.97777      
    567000   1703.93       -44.142941     -46.125193     -46.125193      1.9822522    
    568000   1710.1344     -44.338459     -46.327929     -46.327929      1.98947      
    569000   1706.4734     -44.214267     -46.199478     -46.199478      1.985211     
    570000   1707.1481     -44.289154     -46.27515      -46.27515       1.9859959    
    571000   1709.019      -44.233954     -46.222127     -46.222127      1.9881724    
    572000   1715.9952     -44.142792     -46.13908      -46.13908       1.9962881    
    573000   1720.436      -44.344535     -46.345989     -46.345989      2.0014542    
    574000   1725.4694     -44.14434      -46.151649     -46.151649      2.0073099    
    575000   1724.1429     -44.289001     -46.294767     -46.294767      2.0057666    
    576000   1725.23       -44.138103     -46.145134     -46.145134      2.0070314    
    577000   1729.0018     -44.291822     -46.303241     -46.303241      2.0114193    
    578000   1729.0315     -44.22459      -46.236044     -46.236044      2.0114537    
    579000   1742.7634     -44.19192      -46.219349     -46.219349      2.0274286    
    580000   1740.2592     -44.272956     -46.297471     -46.297471      2.0245154    
    581000   1742.1499     -44.039426     -46.066141     -46.066141      2.0267149    
    582000   1744.424      -44.356342     -46.385702     -46.385702      2.0293605    
    583000   1744.9375     -44.090929     -46.120887     -46.120887      2.0299579    
    584000   1755.8545     -44.214079     -46.256737     -46.256737      2.042658     
    585000   1754.0411     -44.233421     -46.273969     -46.273969      2.0405485    
    586000   1764.0806     -44.075758     -46.127986     -46.127986      2.0522278    
    587000   1760.4195     -44.335861     -46.38383      -46.38383       2.0479688    
    588000   1758.1427     -44.052312     -46.097632     -46.097632      2.04532      
    589000   1769.6637     -44.277304     -46.336027     -46.336027      2.0587229    
    590000   1768.4034     -44.166026     -46.223283     -46.223283      2.0572568    
    591000   1772.9427     -44.212148     -46.274685     -46.274685      2.0625375    
    592000   1776.5631     -44.230064     -46.296813     -46.296813      2.0667492    
    593000   1776.5591     -44.103275     -46.170019     -46.170019      2.0667446    
    594000   1782.2134     -44.202805     -46.276128     -46.276128      2.0733225    
    595000   1787.1196     -44.130259     -46.209289     -46.209289      2.07903      
    596000   1784.6978     -44.229107     -46.30532      -46.30532       2.0762127    
    597000   1792.5812     -44.103559     -46.188943     -46.188943      2.0853838    
    598000   1796.3994     -44.191113     -46.280938     -46.280938      2.0898257    
    599000   1794.0237     -44.090787     -46.177849     -46.177849      2.0870619    
    600000   1806.6467     -44.169131     -46.270877     -46.270877      2.1017467    
    601000   1798.2707     -44.164011     -46.256014     -46.256014      2.0920026    
    602000   1809.9977     -44.087794     -46.193439     -46.193439      2.1056451    
    603000   1812.6678     -44.18398      -46.292732     -46.292732      2.1087514    
    604000   1814.6499     -44.123808     -46.234865     -46.234865      2.1110572    
    605000   1817.5472     -44.184629     -46.299056     -46.299056      2.1144277    
    606000   1815.9683     -44.122202     -46.234793     -46.234793      2.1125909    
    607000   1822.0481     -44.155419     -46.275083     -46.275083      2.1196638    
    608000   1824.6921     -44.0949       -46.21764      -46.21764       2.1227397    
    609000   1822.9705     -44.187964     -46.308701     -46.308701      2.1207369    
    610000   1833.9289     -44.111222     -46.244707     -46.244707      2.1334852    
    611000   1830.2666     -44.174502     -46.303727     -46.303727      2.1292247    
    612000   1835.1487     -44.090158     -46.225062     -46.225062      2.1349043    
    613000   1837.7507     -44.193406     -46.331337     -46.331337      2.1379313    
    614000   1834.6638     -44.060193     -46.194533     -46.194533      2.1343402    
    615000   1846.1365     -44.135055     -46.282742     -46.282742      2.1476869    
    616000   1842.6766     -44.123779     -46.26744      -46.26744       2.1436618    
    617000   1853.2165     -44.104208     -46.260131     -46.260131      2.1559233    
    618000   1854.4817     -44.169544     -46.326939     -46.326939      2.1573951    
    619000   1854.4775     -44.101024     -46.258414     -46.258414      2.1573903    
    620000   1858.8929     -44.125261     -46.287788     -46.287788      2.1625269    
    621000   1860.8769     -44.050975     -46.21581      -46.21581       2.1648349    
    622000   1866.7793     -44.122122     -46.293824     -46.293824      2.1717014    
    623000   1869.9959     -44.035932     -46.211375     -46.211375      2.1754435    
    624000   1865.1167     -44.17683      -46.346597     -46.346597      2.1697673    
    625000   1875.747      -43.986493     -46.168627     -46.168627      2.1821339    
    626000   1875.5415     -44.079201     -46.261096     -46.261096      2.1818949    
    627000   1881.7213     -43.922654     -46.111738     -46.111738      2.1890841    
    628000   1887.902      -43.96674      -46.163015     -46.163015      2.1962743    
    629000   1883.3718     -44.065416     -46.25642      -46.25642       2.1910042    
    630000   1892.2209     -44.017036     -46.218335     -46.218335      2.2012987    
    631000   1892.0112     -44.124513     -46.325568     -46.325568      2.2010547    
    632000   1895.5553     -43.990666     -46.195844     -46.195844      2.2051778    
    633000   1903.3778     -44.102954     -46.317232     -46.317232      2.2142781    
    634000   1897.9773     -44.023589     -46.231585     -46.231585      2.2079954    
    635000   1908.7251     -44.068341     -46.28884      -46.28884       2.2204988    
    636000   1903.5988     -44.127793     -46.342328     -46.342328      2.2145351    
    637000   1916.0433     -44.064958     -46.293971     -46.293971      2.2290124    
    638000   1914.0436     -44.150825     -46.377511     -46.377511      2.2266859    
    639000   1915.2663     -43.966601     -46.19471      -46.19471       2.2281085    
    640000   1921.8761     -44.086451     -46.322249     -46.322249      2.2357978    
    641000   1919.1656     -43.966515     -46.19916      -46.19916       2.2326446    
    642000   1933.1401     -44.051755     -46.300656     -46.300656      2.2489017    
    643000   1931.6182     -44.00839      -46.255521     -46.255521      2.2471312    
    644000   1931.4087     -44.041464     -46.288352     -46.288352      2.2468876    
    645000   1933.7737     -44.083477     -46.333115     -46.333115      2.2496388    
    646000   1936.4281     -44.016029     -46.268756     -46.268756      2.2527268    
    647000   1944.4546     -44.058975     -46.321039     -46.321039      2.2620644    
    648000   1942.4524     -43.949108     -46.208843     -46.208843      2.2597351    
    649000   1942.4756     -44.072227     -46.331989     -46.331989      2.2597621    
    650000   1951.5198     -43.916715     -46.186999     -46.186999      2.2702836    
    651000   1952.679      -44.076056     -46.347689     -46.347689      2.2716322    
    652000   1960.2261     -43.904275     -46.184687     -46.184687      2.280412     
    653000   1959.2776     -44.035948     -46.315256     -46.315256      2.2793085    
    654000   1955.9432     -43.901245     -46.176675     -46.176675      2.2754295    
    655000   1963.0713     -43.877945     -46.161667     -46.161667      2.2837219    
    656000   1962.3085     -43.964902     -46.247737     -46.247737      2.2828345    
    657000   1977.1629     -43.744767     -46.044882     -46.044882      2.3001153    
    658000   1975.9122     -44.086301     -46.384961     -46.384961      2.2986602    
    659000   1971.2975     -43.895954     -46.189245     -46.189245      2.2932918    
    660000   1978.7321     -43.999443     -46.301383     -46.301383      2.3019408    
    661000   1981.9139     -43.954723     -46.260365     -46.260365      2.3056423    
    662000   1989.4129     -43.9203       -46.234666     -46.234666      2.3143662    
    663000   1987.0147     -44.066365     -46.377941     -46.377941      2.3115763    
    664000   1993.3929     -43.842379     -46.161375     -46.161375      2.3189963    
    665000   1993.5285     -44.053833     -46.372987     -46.372987      2.319154     
    666000   1995.6733     -43.793004     -46.114653     -46.114653      2.3216492    
    667000   2006.2539     -43.9637       -46.297658     -46.297658      2.333958     
    668000   1999.5978     -43.903828     -46.230043     -46.230043      2.3262147    
    669000   2009.0434     -43.769691     -46.106894     -46.106894      2.3372032    
    670000   2009.1193     -44.020304     -46.357595     -46.357595      2.3372915    
    671000   2012.9139     -43.784631     -46.126337     -46.126337      2.3417058    
    672000   2017.6345     -43.99851      -46.345708     -46.345708      2.3471975    
    673000   2018.9896     -43.842647     -46.191421     -46.191421      2.348774     
    674000   2028.2554     -43.880814     -46.240367     -46.240367      2.3595533    
    675000   2024.1785     -43.999618     -46.354429     -46.354429      2.3548105    
    676000   2032.3948     -43.858447     -46.222816     -46.222816      2.3643689    
    677000   2027.5202     -44.002641     -46.361339     -46.361339      2.358698     
    678000   2037.0455     -43.809499     -46.179278     -46.179278      2.3697792    
    679000   2020.894      -47.045934     -49.396924     -49.396924      2.3509894    
    680000   2095.7375     -47.817666     -50.255724     -50.255724      2.438058     
    681000   2023.7514     -46.080671     -48.434985     -48.434985      2.3543136    
    682000   2053.6729     -50.974711     -53.363833     -53.363833      2.3891225    
    683000   2053.8155     -50.50808      -52.897369     -52.897369      2.3892884    
    684000   2075.2593     -50.955975     -53.37021      -53.37021       2.4142349    
    685000   2020.4548     -51.537492     -53.88797      -53.88797       2.3504785    
    686000   1939.4762     -51.365575     -53.621848     -53.621848      2.2562728    
    687000   2095.1866     -50.854906     -53.292323     -53.292323      2.4374171    
    688000   2144.6277     -50.445384     -52.940318     -52.940318      2.4949339    
    689000   2049.3267     -50.054068     -52.438134     -52.438134      2.3840664    
    690000   2035.5897     -50.803976     -53.172062     -53.172062      2.3680856    
    691000   2098.3691     -48.96459      -51.405709     -51.405709      2.4411194    
    692000   2113.4267     -49.514238     -51.972875     -51.972875      2.4586366    
    693000   2166.5223     -51.453792     -53.974197     -53.974197      2.5204049    
    694000   2024.0831     -50.727425     -53.082124     -53.082124      2.3546995    
    695000   2078.9998     -51.738159     -54.156745     -54.156745      2.4185864    
    696000   2287.0508     -50.780058     -53.440679     -53.440679      2.6606207    
    697000   2089.6228     -50.893703     -53.324647     -53.324647      2.4309445    
    698000   2084.3022     -50.569193     -52.993947     -52.993947      2.4247548    
    699000   2058.5553     -50.215326     -52.610129     -52.610129      2.3948024    
    700000   1997.3564     -49.206234     -51.529841     -51.529841      2.3236072    
    701000   2052.2418     -50.081755     -52.469213     -52.469213      2.3874577    
    702000   2108.9173     -49.996196     -52.449586     -52.449586      2.4533906    
    703000   2104.4355     -50.697902     -53.146079     -53.146079      2.4481767    
    704000   2111.0536     -51.186892     -53.642768     -53.642768      2.4558759    
    705000   2076.2994     -50.485888     -52.901333     -52.901333      2.4154448    
    706000   2132.6261     -50.809782     -53.290754     -53.290754      2.480972     
    707000   2131.4516     -49.858793     -52.338398     -52.338398      2.4796057    
    708000   2097.1404     -50.346422     -52.786112     -52.786112      2.4396901    
    709000   2104.7267     -49.056733     -51.505248     -51.505248      2.4485155    
    710000   2303.4674     -52.412006     -55.091725     -55.091725      2.6797187    
    711000   2194.5569     -52.8456       -55.398619     -55.398619      2.5530187    
    712000   2211.6769     -54.583179     -57.156114     -57.156114      2.572935     
    713000   2066.3235     -54.429928     -56.833767     -56.833767      2.4038395    
    714000   2150.6221     -52.7122       -55.214108     -55.214108      2.5019075    
    715000   2137.077      -51.347696     -53.833846     -53.833846      2.4861499    
    716000   2065.816      -53.826574     -56.229823     -56.229823      2.4032491    
    717000   2117.062      -53.108264     -55.57113      -55.57113       2.4628657    
    718000   1978.1854     -53.111848     -55.413153     -55.413153      2.3013048    
    719000   2156.1141     -53.168445     -55.676741     -55.676741      2.5082966    
    720000   2017.7951     -52.887297     -55.234681     -55.234681      2.3473844    
    721000   2034.6956     -53.562919     -55.929964     -55.929964      2.3670454    
    722000   2178.2807     -53.519898     -56.053982     -56.053982      2.5340839    
    723000   2268.627      -54.257057     -56.896244     -56.896244      2.6391875    
    724000   2108.8171     -52.349018     -54.802293     -54.802293      2.4532741    
    725000   2211.3109     -54.503703     -57.076212     -57.076212      2.5725093    
    726000   2266.1728     -53.705739     -56.342072     -56.342072      2.6363324    
    727000   2230.9962     -53.243563     -55.838973     -55.838973      2.59541      
    728000   2115.3364     -53.400165     -55.861023     -55.861023      2.4608582    
    729000   2097.4943     -53.80282      -56.242922     -56.242922      2.4401017    
    730000   2277.7937     -53.208219     -55.85807      -55.85807       2.6498514    
    731000   2371.1931     -51.662809     -54.421316     -54.421316      2.7585069    
    732000   2248.9049     -54.513662     -57.129906     -57.129906      2.616244     
    733000   1887.606      -51.79081      -53.98674      -53.98674       2.1959301    
    734000   2194.6299     -53.843255     -56.396359     -56.396359      2.5531037    
    735000   2196.0357     -54.213613     -56.768352     -56.768352      2.554739     
    736000   2285.4638     -52.493325     -55.152099     -55.152099      2.6587744    
    737000   2258.7707     -52.404732     -55.032454     -55.032454      2.6277213    
    738000   2074.0367     -53.140608     -55.553421     -55.553421      2.4128126    
    739000   2156.6654     -53.600717     -56.109655     -56.109655      2.5089379    
    740000   2216.9191     -54.026104     -56.605138     -56.605138      2.5790336    
    741000   2299.0378     -53.914346     -56.588912     -56.588912      2.6745656    
    742000   2390.7753     -53.927912     -56.7092       -56.7092        2.7812877    
    743000   2177.1278     -52.010275     -54.543018     -54.543018      2.5327426    
    744000   2219.1293     -54.242902     -56.824506     -56.824506      2.5816048    
    745000   2232.5313     -52.932962     -55.530158     -55.530158      2.5971959    
    746000   2195.8907     -53.50569      -56.06026      -56.06026       2.5545703    
    747000   2260.7693     -53.303894     -55.93394      -55.93394       2.6300463    
    748000   2196.639      -53.908648     -56.464089     -56.464089      2.5554409    
    749000   2264.4362     -54.041123     -56.675435     -56.675435      2.6343122    
    750000   2304.136      -54.204061     -56.884557     -56.884557      2.6804966    
    751000   2319.2005     -52.498312     -55.196333     -55.196333      2.6980218    
    752000   2237.9231     -53.073971     -55.67744      -55.67744       2.6034684    
    753000   2150.0746     -52.695224     -55.196495     -55.196495      2.5012706    
    754000   2360.897      -52.090798     -54.837327     -54.837327      2.746529     
    755000   2438.8886     -52.552119     -55.389378     -55.389378      2.8372598    
    756000   2195.6034     -51.906555     -54.460791     -54.460791      2.5542361    
    757000   2268.8138     -53.458336     -56.097741     -56.097741      2.6394048    
    758000   2290.2084     -53.245721     -55.910015     -55.910015      2.664294     
    759000   2383.3234     -52.326904     -55.099523     -55.099523      2.7726185    
    760000   2307.4775     -52.441804     -55.126188     -55.126188      2.6843839    
    761000   2311.8715     -52.71065      -55.400146     -55.400146      2.6894956    
    762000   2247.984      -52.60203      -55.217202     -55.217202      2.6151726    
    763000   2309.1808     -52.02419      -54.710556     -54.710556      2.6863654    
    764000   2383.4215     -53.213696     -55.986429     -55.986429      2.7727327    
    765000   2275.7078     -53.079582     -55.727007     -55.727007      2.6474248    
    766000   2344.1661     -53.411422     -56.138487     -56.138487      2.7270652    
    767000   2247.4821     -54.346043     -56.960632     -56.960632      2.6145887    
    768000   2283.1747     -53.332922     -55.989034     -55.989034      2.6561115    
    769000   2265.4815     -50.81472      -53.450248     -53.450248      2.6355282    
    770000   2456.8514     -52.692267     -55.550424     -55.550424      2.8581567    
    771000   2304.3134     -53.96906      -56.649763     -56.649763      2.680703     
    772000   2293.2338     -53.300461     -55.968275     -55.968275      2.6678136    
    773000   2387.7355     -54.156277     -56.934028     -56.934028      2.7777513    
    774000   2373.0168     -53.650841     -56.411469     -56.411469      2.7606285    
    775000   2301.2078     -53.898867     -56.575957     -56.575957      2.67709      
    776000   2296.3793     -54.303471     -56.974944     -56.974944      2.6714729    
    777000   2415.1898     -52.331559     -55.141249     -55.141249      2.8096901    
    778000   2501.6314     -54.0702       -56.980451     -56.980451      2.9102511    
    779000   2304.8387     -54.290048     -56.971362     -56.971362      2.681314     
    780000   2177.4819     -50.550192     -53.083346     -53.083346      2.5331547    
    781000   2372.8769     -53.908083     -56.668549     -56.668549      2.7604657    
    782000   2404.2383     -53.331789     -56.128739     -56.128739      2.7969497    
    783000   2370.3901     -53.332125     -56.089697     -56.089697      2.7575727    
    784000   2347.1609     -54.018489     -56.749038     -56.749038      2.7305492    
    785000   2392.0192     -53.762194     -56.544929     -56.544929      2.7827347    
    786000   2485.6844     -52.213972     -55.105671     -55.105671      2.8916994    
    787000   2373.6777     -53.928822     -56.690219     -56.690219      2.7613973    
    788000   2393.8921     -51.524918     -54.309831     -54.309831      2.7849135    
    789000   2284.7773     -53.364583     -56.022559     -56.022559      2.6579758    
    790000   2304.0022     -54.180907     -56.861248     -56.861248      2.680341     
    791000   2332.7227     -52.53147      -55.245222     -55.245222      2.7137527    
    792000   2348.2962     -53.971421     -56.703291     -56.703291      2.73187      
    793000   2458.5698     -53.965408     -56.825564     -56.825564      2.8601558    
    794000   2452.9124     -52.087897     -54.941472     -54.941472      2.8535744    
    795000   2386.3334     -54.47737      -57.253491     -57.253491      2.7761202    
    796000   2388.5487     -53.084414     -55.863111     -55.863111      2.7786974    
    797000   2355.5577     -51.089238     -53.829555     -53.829555      2.7403175    
    798000   2426.8665     -53.622918     -56.446192     -56.446192      2.823274     
    799000   2320.4647     -53.928123     -56.627615     -56.627615      2.6994924    
    800000   2348.6029     -51.421652     -54.153879     -54.153879      2.7322268    
    801000   2360.3954     -54.180699     -56.926644     -56.926644      2.7459454    
    802000   2515.2188     -54.193427     -57.119485     -57.119485      2.9260579    
    803000   2371.1772     -54.276827     -57.035316     -57.035316      2.7584884    
    804000   2425.3525     -52.715514     -55.537027     -55.537027      2.8215128    
    805000   2360.2374     -54.033086     -56.778848     -56.778848      2.7457617    
    806000   2564.1075     -52.676454     -55.659386     -55.659386      2.9829321    
    807000   2371.7271     -54.081878     -56.841006     -56.841006      2.7591281    
    808000   2434.2069     -53.59695      -56.428764     -56.428764      2.8318135    
    809000   2503.3403     -53.120315     -56.032554     -56.032554      2.9122392    
    810000   2359.2786     -52.90815      -55.652796     -55.652796      2.7446463    
    811000   2504.3718     -51.986003     -54.899442     -54.899442      2.9134392    
    812000   2423.992      -53.949076     -56.769006     -56.769006      2.81993      
    813000   2382.5301     -53.308254     -56.07995      -56.07995       2.7716957    
    814000   2429.2378     -53.436869     -56.262902     -56.262902      2.8260327    
    815000   2466.701      -53.287954     -56.157569     -56.157569      2.8696152    
    816000   2304.0237     -51.710606     -54.390972     -54.390972      2.680366     
    817000   2407.1909     -52.482422     -55.282807     -55.282807      2.8003846    
    818000   2487.754      -53.373025     -56.267132     -56.267132      2.894107     
    819000   2466.1305     -53.339494     -56.208445     -56.208445      2.8689515    
    820000   2500.7653     -53.02026      -55.929504     -55.929504      2.9092436    
    821000   2356.7029     -53.220116     -55.961766     -55.961766      2.7416498    
    822000   2469.3807     -53.035005     -55.907737     -55.907737      2.8727326    
    823000   2509.1066     -52.082735     -55.001682     -55.001682      2.9189473    
    824000   2457.0781     -53.59559      -56.454011     -56.454011      2.8584204    
    825000   2478.2063     -53.12756      -56.01056      -56.01056       2.8829998    
    826000   2475.6547     -53.577395     -56.457427     -56.457427      2.8800313    
    827000   2516.2735     -52.1374       -55.064685     -55.064685      2.9272849    
    828000   2436.4662     -51.902329     -54.736771     -54.736771      2.8344417    
    829000   2475.9888     -53.837282     -56.717702     -56.717702      2.88042      
    830000   2472.9107     -50.888561     -53.7654       -53.7654        2.8768392    
    831000   2496.6686     -53.975916     -56.880393     -56.880393      2.9044777    
    832000   2406.5629     -53.908518     -56.708172     -56.708172      2.799654     
    833000   2461.197      -53.756937     -56.62015      -56.62015       2.8632122    
    834000   2588.3803     -52.509699     -55.520868     -55.520868      3.0111697    
    835000   2433.1824     -51.686506     -54.517127     -54.517127      2.8306216    
    836000   2573.2098     -53.00673      -56.000251     -56.000251      2.9935213    
    837000   2529.5175     -51.842525     -54.785217     -54.785217      2.9426921    
    838000   2470.0442     -52.690689     -55.564193     -55.564193      2.8735044    
    839000   2600.1992     -51.290417     -54.315336     -54.315336      3.0249191    
    840000   2587.2083     -52.027731     -55.037537     -55.037537      3.0098062    
    841000   2528.2995     -53.773054     -56.714329     -56.714329      2.9412753    
    842000   2517.8111     -52.819933     -55.749006     -55.749006      2.9290737    
    843000   2460.1132     -53.421175     -56.283126     -56.283126      2.8619513    
    844000   2620.895      -52.603186     -55.652182     -55.652182      3.0489954    
    845000   2409.5199     -52.145131     -54.948225     -54.948225      2.803094     
    846000   2659.3598     -53.591208     -56.684951     -56.684951      3.0937431    
    847000   2705.8951     -50.750959     -53.898839     -53.898839      3.1478795    
    848000   2508.3248     -53.263098     -56.181135     -56.181135      2.9180379    
    849000   2548.9856     -52.087661     -55.053001     -55.053001      2.9653403    
    850000   2865.4272     -50.382103     -53.715573     -53.715573      3.3334698    
    851000   2585.7517     -52.560158     -55.56827      -55.56827       3.0081117    
    852000   2681.3139     -52.14337      -55.262654     -55.262654      3.1192832    
    853000   2602.199      -50.684473     -53.711718     -53.711718      3.0272456    
    854000   2491.4197     -52.576791     -55.475162     -55.475162      2.8983714    
    855000   2437.7334     -53.738492     -56.574408     -56.574408      2.8359159    
    856000   2598.8121     -50.819398     -53.842703     -53.842703      3.0233054    
    857000   2495.314      -53.661405     -56.564307     -56.564307      2.9029018    
    858000   2584.6871     -53.452225     -56.459098     -56.459098      3.0068732    
    859000   2541.6653     -52.993208     -55.950033     -55.950033      2.9568243    
    860000   2590.0695     -52.438395     -55.451529     -55.451529      3.0131348    
    861000   2497.1889     -52.94314      -55.848223     -55.848223      2.905083     
    862000   2713.311      -52.986446     -56.142952     -56.142952      3.1565068    
    863000   2473.77       -52.287578     -55.165417     -55.165417      2.8778388    
    864000   2528.4471     -53.555428     -56.496875     -56.496875      2.941447     
    865000   2377.2821     -52.695452     -55.461042     -55.461042      2.7655904    
    866000   2534.2346     -52.288432     -55.236612     -55.236612      2.9481798    
    867000   2599.5666     -53.660128     -56.684311     -56.684311      3.0241832    
    868000   2562.7599     -52.538708     -55.520073     -55.520073      2.9813644    
    869000   2583.3542     -52.448483     -55.453806     -55.453806      3.0053227    
    870000   2675.1025     -53.487155     -56.599212     -56.599212      3.1120572    
    871000   2707.8218     -52.440746     -55.590867     -55.590867      3.1501209    
    872000   2634.0421     -53.686349     -56.750639     -56.750639      3.06429      
    873000   2571.3933     -53.849114     -56.840522     -56.840522      2.9914081    
    874000   2595.2849     -53.497473     -56.516676     -56.516676      3.0192021    
    875000   2695.7879     -50.947291     -54.083412     -54.083412      3.1361214    
    876000   2593.1782     -53.2121       -56.228851     -56.228851      3.0167513    
    877000   2810.0677     -52.198991     -55.468059     -55.468059      3.2690678    
    878000   2720.3089     -51.808502     -54.973149     -54.973149      3.1646477    
    879000   2751.7384     -53.383845     -56.585056     -56.585056      3.2012109    
    880000   2700.8232     -52.373438     -55.515417     -55.515417      3.1419791    
    881000   2726.4685     -52.766081     -55.937894     -55.937894      3.1718134    
    882000   2715.7203     -50.714507     -53.873817     -53.873817      3.1593096    
    883000   2675.7951     -51.636727     -54.74959      -54.74959       3.112863     
    884000   2626.6814     -53.175219     -56.230946     -56.230946      3.055727     
    885000   2730.7281     -50.148637     -53.325405     -53.325405      3.1767688    
    886000   2714.2523     -49.887489     -53.04509      -53.04509       3.1576018    
    887000   2834.4619     -52.9783       -56.275747     -56.275747      3.2974467    
    888000   2637.7974     -51.59382      -54.662479     -54.662479      3.0686587    
    889000   2574.7113     -52.76271      -55.757978     -55.757978      2.995268     
    890000   2605.8761     -52.114683     -55.146207     -55.146207      3.0315233    
    891000   2634.0865     -52.847775     -55.912117     -55.912117      3.0643416    
    892000   2640.5266     -52.731465     -55.803299     -55.803299      3.0718337    
    893000   2705.8026     -52.921621     -56.069393     -56.069393      3.1477719    
    894000   2611.9047     -53.096022     -56.134558     -56.134558      3.0385367    
    895000   2693.6851     -52.75943      -55.893105     -55.893105      3.1336752    
    896000   2853.2429     -51.339546     -54.658841     -54.658841      3.3192954    
    897000   2656.5965     -51.809466     -54.899995     -54.899995      3.0905284    
    898000   2545.6508     -52.261566     -55.223027     -55.223027      2.9614607    
    899000   2621.1361     -52.989386     -56.038662     -56.038662      3.0492759    
    900000   2624.6502     -53.118419     -56.171783     -56.171783      3.053364     
    901000   2644.0398     -51.304324     -54.380245     -54.380245      3.0759207    
    902000   2733.2253     -52.448672     -55.628346     -55.628346      3.1796739    
    903000   2511.0109     -50.804959     -53.726122     -53.726122      2.9211627    
    904000   2691.7064     -52.005614     -55.136987     -55.136987      3.1313732    
    905000   2648.3818     -51.519927     -54.600899     -54.600899      3.0809719    
    906000   2828.4944     -51.276834     -54.567338     -54.567338      3.2905044    
    907000   2613.7368     -52.185432     -55.2261       -55.2261        3.040668     
    908000   2486.5922     -50.414349     -53.307104     -53.307104      2.8927554    
    909000   2754.6539     -52.22314      -55.427743     -55.427743      3.2046027    
    910000   2744.6887     -51.739249     -54.932259     -54.932259      3.1930097    
    911000   2662.2887     -50.988204     -54.085355     -54.085355      3.0971504    
    912000   2751.6675     -52.447713     -55.648842     -55.648842      3.2011285    
    913000   2802.3879     -51.475943     -54.736076     -54.736076      3.2601336    
    914000   2881.3431     -51.017083     -54.369068     -54.369068      3.3519854    
    915000   2622.758      -50.844315     -53.895478     -53.895478      3.0511628    
    916000   2793.8565     -51.479658     -54.729866     -54.729866      3.2502086    
    917000   2867.9388     -51.684484     -55.020876     -55.020876      3.3363916    
    918000   2745.1053     -52.850888     -56.044383     -56.044383      3.1934944    
    919000   2710.9416     -50.775236     -53.928986     -53.928986      3.1537504    
    920000   2862.3234     -52.934772     -56.264631     -56.264631      3.329859     
    921000   2840.8369     -52.405682     -55.710545     -55.710545      3.304863     
    922000   2701.3421     -51.333125     -54.475708     -54.475708      3.1425828    
    923000   2725.0642     -51.737557     -54.907737     -54.907737      3.1701798    
    924000   2720.3893     -52.01519      -55.179931     -55.179931      3.1647413    
    925000   2695.3355     -52.894509     -56.030104     -56.030104      3.1355951    
    926000   2847.5798     -51.381101     -54.693808     -54.693808      3.3127072    
    927000   2836.4593     -52.425496     -55.725266     -55.725266      3.2997703    
    928000   2808.0512     -50.54745      -53.814172     -53.814172      3.266722     
    929000   2544.2981     -52.49625      -55.456137     -55.456137      2.9598871    
    930000   2711.9939     -52.8662       -56.021174     -56.021174      3.1549746    
    931000   2810.62       -50.369554     -53.639265     -53.639265      3.2697104    
    932000   2811.5702     -53.238931     -56.509747     -56.509747      3.2708158    
    933000   2629.9001     -49.22065      -52.280121     -52.280121      3.0594714    
    934000   2766.8983     -51.773274     -54.992121     -54.992121      3.218847     
    935000   2942.312      -51.470074     -54.892988     -54.892988      3.4229131    
    936000   2784.3105     -49.507831     -52.746934     -52.746934      3.2391034    
    937000   2867.9354     -51.771959     -55.108347     -55.108347      3.3363877    
    938000   2931.2536     -52.617856     -56.027905     -56.027905      3.4100484    
    939000   2863.3527     -52.661277     -55.992333     -55.992333      3.3310564    
    940000   2870.5204     -52.937491     -56.276886     -56.276886      3.339395     
    941000   2867.823      -50.717311     -54.053568     -54.053568      3.336257     
    942000   2864.0546     -52.017776     -55.349649     -55.349649      3.331873     
    943000   2801.3673     -51.767771     -55.026717     -55.026717      3.2589463    
    944000   2735.5382     -52.908555     -56.09092      -56.09092       3.1823645    
    945000   2791.4283     -53.099745     -56.347129     -56.347129      3.2473839    
    946000   2822.5603     -53.517164     -56.800765     -56.800765      3.2836009    
    947000   3005.8705     -52.88427      -56.381124     -56.381124      3.4968534    
    948000   2893.6285     -48.3716       -51.737878     -51.737878      3.3662776    
    949000   2713.6212     -51.425906     -54.582774     -54.582774      3.1568677    
    950000   2770.8557     -52.97721      -56.200661     -56.200661      3.2234509    
    951000   2962.5064     -53.045282     -56.491688     -56.491688      3.4464061    
    952000   2818.8025     -52.73279      -56.01202      -56.01202       3.2792294    
    953000   2939.854      -52.963187     -56.383241     -56.383241      3.4200535    
    954000   2639.3659     -51.53763      -54.608113     -54.608113      3.0704834    
    955000   2863.4554     -52.010351     -55.341527     -55.341527      3.3311759    
    956000   2914.8852     -52.904302     -56.295308     -56.295308      3.3910064    
    957000   2874.942      -52.903167     -56.247706     -56.247706      3.3445387    
    958000   2825.3392     -48.420445     -51.707279     -51.707279      3.2868338    
    959000   2888.6843     -53.031108     -56.391634     -56.391634      3.3605257    
    960000   2931.4185     -50.247352     -53.657593     -53.657593      3.4102402    
    961000   2700.3809     -50.079028     -53.220493     -53.220493      3.1414646    
    962000   3016.1739     -53.147231     -56.656071     -56.656071      3.5088397    
    963000   2881.1218     -52.135932     -55.48766      -55.48766       3.3517279    
    964000   2892.4989     -52.126132     -55.491096     -55.491096      3.3649634    
    965000   2975.6583     -51.962083     -55.42379      -55.42379       3.4617062    
    966000   2713.5522     -51.134718     -54.291506     -54.291506      3.1567873    
    967000   2877.1046     -51.895681     -55.242736     -55.242736      3.3470547    
    968000   2915.7024     -50.316762     -53.708719     -53.708719      3.391957     
    969000   2831.7712     -51.526426     -54.820743     -54.820743      3.2943164    
    970000   2907.2189     -49.896848     -53.278935     -53.278935      3.3820878    
    971000   3014.6422     -51.769091     -55.276148     -55.276148      3.5070578    
    972000   3011.6237     -49.795218     -53.298764     -53.298764      3.5035463    
    973000   2755.5691     -50.638083     -53.84375      -53.84375       3.2056673    
    974000   3076.4636     -52.512974     -56.091951     -56.091951      3.5789771    
    975000   2941.9539     -49.241495     -52.663992     -52.663992      3.4224965    
    976000   3110.4097     -48.174593     -51.793062     -51.793062      3.6184681    
    977000   2908.9423     -50.162706     -53.546799     -53.546799      3.3840927    
    978000   3029.4039     -51.923007     -55.447237     -55.447237      3.5242307    
    979000   3096.6777     -51.882873     -55.485366     -55.485366      3.6024931    
    980000   2956.1788     -52.614122     -56.053167     -56.053167      3.439045     
    981000   2848.6047     -51.033237     -54.347137     -54.347137      3.3138995    
    982000   2884.1581     -50.507637     -53.862897     -53.862897      3.3552603    
    983000   2969.5729     -51.509268     -54.963895     -54.963895      3.4546268    
    984000   2848.1149     -51.231294     -54.544623     -54.544623      3.3133297    
    985000   2959.2093     -51.138239     -54.58081      -54.58081       3.4425704    
    986000   2950.6759     -51.104149     -54.536792     -54.536792      3.4326432    
    987000   3167.0904     -51.094617     -54.779024     -54.779024      3.6844071    
    988000   3105.1871     -49.521843     -53.134235     -53.134235      3.6123924    
    989000   2835.9003     -49.458562     -52.757682     -52.757682      3.2991199    
    990000   2992.3823     -51.919299     -55.400461     -55.400461      3.481162     
    991000   2882.4917     -51.482454     -54.835775     -54.835775      3.3533217    
    992000   3024.2229     -52.262076     -55.780279     -55.780279      3.5182034    
    993000   2945.6626     -50.159047     -53.585858     -53.585858      3.426811     
    994000   2909.0906     -50.584922     -53.969188     -53.969188      3.3842653    
    995000   3005.202      -50.374243     -53.870319     -53.870319      3.4960756    
    996000   2977.3752     -51.894459     -55.358162     -55.358162      3.4637035    
    997000   2905.006      -50.45321      -53.832724     -53.832724      3.3795135    
    998000   2915.8097     -52.754464     -56.146546     -56.146546      3.3920818    
    999000   3199.3077     -51.60181      -55.323697     -55.323697      3.7218868    
   1000000   3183.0404     -48.633874     -52.336836     -52.336836      3.7029623    
Loop time of 4.57333 on 1 procs for 1000000 steps with 10 atoms

Performance: 1889.214 ns/day, 0.013 hours/ns, 218659.024 timesteps/s, 2.187 Matom-step/s
106.0% CPU use with 1 MPI tasks x 1 OpenMP threads

MPI task timing breakdown:
Section |  min time  |  avg time  |  max time  |%varavg| %total
---------------------------------------------------------------
Pair    | 3.139      | 3.139      | 3.139      |   0.0 | 68.64
Neigh   | 0.14328    | 0.14328    | 0.14328    |   0.0 |  3.13
Comm    | 0.14081    | 0.14081    | 0.14081    |   0.0 |  3.08
Output  | 0.18654    | 0.18654    | 0.18654    |   0.0 |  4.08
Modify  | 0.80547    | 0.80547    | 0.80547    |   0.0 | 17.61
Other   |            | 0.1582     |            |       |  3.46

Nlocal:             10 ave          10 max          10 min
Histogram: 1 0 0 0 0 0 0 0 0 0
Nghost:              0 ave           0 max           0 min
Histogram: 1 0 0 0 0 0 0 0 0 0
Neighs:              0 ave           0 max           0 min
Histogram: 1 0 0 0 0 0 0 0 0 0
FullNghs:           90 ave          90 max          90 min
Histogram: 1 0 0 0 0 0 0 0 0 0

Total # of neighbors = 90
Ave neighs/atom = 9
Neighbor list builds = 18559
Dangerous builds = 0
write_restart 	C100/endconf/endconf*1.restart
System init for write_restart ...

#==============Constant Temp Phase==================

# Minimize during the constant temperature phase
min_style       sd
minimize        1.0e-5 1.0e-7 500 1000
Per MPI rank memory allocation (min/avg/max) = 6.264 | 6.264 | 6.264 Mbytes
   Step          Temp          TotEng         E_pair         PotEng         KinEng    
   1000000   3183.0404     -48.633874     -52.336836     -52.336836      3.7029623    
   1000062   3183.0404     -54.401274     -58.104236     -58.104236      3.7029623    
Loop time of 0.00379188 on 1 procs for 62 steps with 10 atoms

31.8% CPU use with 1 MPI tasks x 1 OpenMP threads

Minimization stats:
  Stopping criterion = energy tolerance
  Energy initial, next-to-last, final = 
     -52.3368358687512  -58.1036630780054  -58.1042361536865
  Force two-norm initial, final = 14.941432 0.2712924
  Force max component initial, final = 6.0998949 0.10120602
  Final line search alpha, max atom move = 0.75125455 0.076031484
  Iterations, force evaluations = 62 120

MPI task timing breakdown:
Section |  min time  |  avg time  |  max time  |%varavg| %total
---------------------------------------------------------------
Pair    | 0.00048958 | 0.00048958 | 0.00048958 |   0.0 | 12.91
Neigh   | 6.9122e-05 | 6.9122e-05 | 6.9122e-05 |   0.0 |  1.82
Comm    | 1.7443e-05 | 1.7443e-05 | 1.7443e-05 |   0.0 |  0.46
Output  | 0          | 0          | 0          |   0.0 |  0.00
Modify  | 0          | 0          | 0          |   0.0 |  0.00
Other   |            | 0.003216   |            |       | 84.81

Nlocal:             10 ave          10 max          10 min
Histogram: 1 0 0 0 0 0 0 0 0 0
Nghost:              0 ave           0 max           0 min
Histogram: 1 0 0 0 0 0 0 0 0 0
Neighs:              0 ave           0 max           0 min
Histogram: 1 0 0 0 0 0 0 0 0 0
FullNghs:           90 ave          90 max          90 min
Histogram: 1 0 0 0 0 0 0 0 0 0

Total # of neighbors = 90
Ave neighs/atom = 9
Neighbor list builds = 21
Dangerous builds = 0

unfix 			2
fix 			4 all temp/berendsen ${tempchauf} ${tempchauf} ${Tdamp}
fix 			4 all temp/berendsen 3000 ${tempchauf} ${Tdamp}
fix 			4 all temp/berendsen 3000 3000 ${Tdamp}
fix 			4 all temp/berendsen 3000 3000 0.001

run 			${iterther}
run 			100000
Per MPI rank memory allocation (min/avg/max) = 5.139 | 5.139 | 5.139 Mbytes
   Step          Temp          TotEng         E_pair         PotEng         KinEng    
   1000062   3183.0404     -54.401274     -58.104236     -58.104236      3.7029623    
   1001000   3164.6873     -49.59702      -53.278631     -53.278631      3.6816115    
   1002000   3170.9441     -49.458831     -53.147721     -53.147721      3.6888903    
   1003000   2943.9552     -49.967921     -53.392746     -53.392746      3.4248247    
   1004000   2960.3894     -50.896275     -54.340219     -54.340219      3.4439432    
   1005000   2968.694      -51.133996     -54.5876       -54.5876        3.4536043    
   1006000   3094.7775     -51.741957     -55.342239     -55.342239      3.6002824    
   1007000   3191.1907     -51.195841     -54.908285     -54.908285      3.712444     
   1008000   3230.8054     -52.062852     -55.821382     -55.821382      3.7585293    
   1009000   2887.2205     -49.37096      -52.729783     -52.729783      3.3588228    
   1010000   2947.3824     -51.125525     -54.554337     -54.554337      3.4288117    
   1011000   2985.1829     -50.674575     -54.147362     -54.147362      3.4727866    
   1012000   2948.475      -52.470406     -55.900489     -55.900489      3.4300828    
   1013000   2858.4248     -52.02537      -55.350693     -55.350693      3.3253237    
   1014000   2725.6262     -50.760059     -53.930892     -53.930892      3.1708335    
   1015000   3094.5047     -50.915205     -54.51517      -54.51517       3.5999651    
   1016000   2972.1944     -50.815729     -54.273406     -54.273406      3.4576765    
   1017000   2969.877      -48.339823     -51.794804     -51.794804      3.4549806    
   1018000   3109.7272     -51.779845     -55.39752      -55.39752       3.6176741    
   1019000   3088.193      -52.622746     -56.215368     -56.215368      3.5926225    
   1020000   3054.5323     -51.381715     -54.935179     -54.935179      3.5534636    
   1021000   3159.6391     -48.426205     -52.101944     -52.101944      3.6757387    
   1022000   3034.2347     -52.034964     -55.564814     -55.564814      3.5298505    
   1023000   2932.2566     -52.727643     -56.138858     -56.138858      3.4112152    
   1024000   3062.3523     -53.48845      -57.05101      -57.05101       3.5625609    
   1025000   3118.8154     -48.209513     -51.83776      -51.83776       3.6282468    
   1026000   3061.4668     -52.849943     -56.411474     -56.411474      3.5615308    
   1027000   2973.6991     -53.091271     -56.550698     -56.550698      3.459427     
   1028000   2776.7885     -48.760246     -51.990599     -51.990599      3.2303528    
   1029000   2993.1117     -50.888001     -54.370011     -54.370011      3.4820104    
   1030000   3066.9716     -52.90603      -56.473965     -56.473965      3.5679348    
   1031000   2994.7572     -51.730223     -55.214148     -55.214148      3.4839247    
   1032000   2918.7854     -50.904563     -54.300106     -54.300106      3.3955436    
   1033000   2908.6768     -52.230493     -55.614277     -55.614277      3.3837839    
   1034000   2961.3503     -52.87174      -56.316801     -56.316801      3.4450611    
   1035000   3019.7053     -53.563159     -57.076107     -57.076107      3.5129479    
   1036000   3027.9905     -53.297489     -56.820076     -56.820076      3.5225864    
   1037000   2994.2233     -53.517826     -57.00113      -57.00113       3.4833037    
   1038000   3139.0377     -52.62533      -56.277103     -56.277103      3.6517722    
   1039000   2960.6838     -52.506143     -55.950429     -55.950429      3.4442857    
   1040000   3035.4378     -52.533764     -56.065014     -56.065014      3.5312502    
   1041000   2953.9221     -52.331963     -55.768382     -55.768382      3.4364196    
   1042000   3047.7612     -52.45452      -56.000106     -56.000106      3.5455865    
   1043000   3034.7194     -53.02466      -56.555074     -56.555074      3.5304144    
   1044000   3035.6268     -52.690761     -56.222231     -56.222231      3.5314701    
   1045000   3045.393      -52.51825      -56.061082     -56.061082      3.5428314    
   1046000   2908.2383     -52.541222     -55.924495     -55.924495      3.3832737    
   1047000   2945.8723     -52.974976     -56.402031     -56.402031      3.4270549    
   1048000   3033.6197     -53.498798     -57.027933     -57.027933      3.5291351    
   1049000   2995.6665     -52.321643     -55.806625     -55.806625      3.4849826    
   1050000   2957.5437     -52.87507      -56.315703     -56.315703      3.4406328    
   1051000   2888.1478     -51.731444     -55.091346     -55.091346      3.3599017    
   1052000   2923.017      -52.064369     -55.464835     -55.464835      3.4004664    
   1053000   3129.2385     -52.999984     -56.640356     -56.640356      3.6403724    
   1054000   2985.0829     -51.58973      -55.0624       -55.0624        3.4726702    
   1055000   3223.8355     -51.421479     -55.1719       -55.1719        3.750421     
   1056000   2899.8865     -53.223676     -56.597233     -56.597233      3.3735577    
   1057000   2779.8348     -46.580099     -49.813996     -49.813996      3.2338966    
   1058000   3069.5415     -52.4282       -55.999125     -55.999125      3.5709244    
   1059000   3000.9346     -50.18107      -53.672181     -53.672181      3.4911112    
   1060000   3070.0779     -46.96885      -50.540399     -50.540399      3.5715485    
   1061000   3042.6467     -49.26242      -52.802057     -52.802057      3.5396365    
   1062000   2878.2298     -50.41744      -53.765804     -53.765804      3.3483636    
   1063000   2968.2977     -52.078402     -55.531546     -55.531546      3.4531434    
   1064000   2943.3543     -49.149785     -52.57391      -52.57391       3.4241256    
   1065000   2994.276      -50.726223     -54.209588     -54.209588      3.4833649    
   1066000   3078.8429     -51.766841     -55.348587     -55.348587      3.5817451    
   1067000   3053.9833     -49.435214     -52.988039     -52.988039      3.5528249    
   1068000   2944.1244     -51.210544     -54.635566     -54.635566      3.4250216    
   1069000   2919.8393     -52.513477     -55.910247     -55.910247      3.3967696    
   1070000   2996.3249     -51.610838     -55.096586     -55.096586      3.4857486    
   1071000   2954.9879     -50.866924     -54.304583     -54.304583      3.4376595    
   1072000   3145.6198     -50.87763      -54.53706      -54.53706       3.6594294    
   1073000   2900.4563     -52.162942     -55.537163     -55.537163      3.3742206    
   1074000   3112.1899     -52.456776     -56.077315     -56.077315      3.620539     
   1075000   2916.811      -50.606042     -53.999288     -53.999288      3.3932467    
   1076000   3232.521      -49.469588     -53.230113     -53.230113      3.7605252    
   1077000   3025.6856     -51.97203      -55.491935     -55.491935      3.519905     
   1078000   3138.5623     -52.915604     -56.566823     -56.566823      3.6512192    
   1079000   3041.7278     -52.379827     -55.918395     -55.918395      3.5385676    
   1080000   3059.071      -52.097594     -55.656337     -55.656337      3.5587436    
   1081000   2982.9937     -51.288022     -54.758262     -54.758262      3.4702397    
   1082000   2915.3451     -52.035472     -55.427013     -55.427013      3.3915414    
   1083000   3067.0965     -52.159302     -55.727382     -55.727382      3.56808      
   1084000   3072.6337     -51.345953     -54.920475     -54.920475      3.5745217    
   1085000   2901.9813     -52.139259     -55.515253     -55.515253      3.3759947    
   1086000   3030.9065     -52.605757     -56.131736     -56.131736      3.5259787    
   1087000   3021.3478     -52.389075     -55.903934     -55.903934      3.5148587    
   1088000   2921.3748     -52.375731     -55.774287     -55.774287      3.398556     
   1089000   3018.7102     -52.277613     -55.789403     -55.789403      3.5117903    
   1090000   3018.5215     -51.398742     -54.910313     -54.910313      3.5115707    
   1091000   3016.4898     -52.184071     -55.693279     -55.693279      3.5092071    
   1092000   3092.0607     -52.071737     -55.668859     -55.668859      3.5971219    
   1093000   2916.7894     -52.609075     -56.002297     -56.002297      3.3932215    
   1094000   2994.7775     -52.246564     -55.730512     -55.730512      3.4839484    
   1095000   2891.9217     -51.468722     -54.833014     -54.833014      3.364292     
   1096000   2990.1572     -49.699467     -53.178041     -53.178041      3.4785733    
   1097000   2937.39       -51.220999     -54.638186     -54.638186      3.4171871    
   1098000   3046.4514     -52.326515     -55.870578     -55.870578      3.5440628    
   1099000   3048.1492     -50.249205     -53.795243     -53.795243      3.5460379    
   1100000   3085.379      -52.888776     -56.478125     -56.478125      3.5893488    
   1100062   3065.5909     -52.440319     -56.006648     -56.006648      3.5663285    
Loop time of 0.438915 on 1 procs for 100000 steps with 10 atoms

Performance: 1968.491 ns/day, 0.012 hours/ns, 227834.608 timesteps/s, 2.278 Matom-step/s
106.5% CPU use with 1 MPI tasks x 1 OpenMP threads

MPI task timing breakdown:
Section |  min time  |  avg time  |  max time  |%varavg| %total
---------------------------------------------------------------
Pair    | 0.32025    | 0.32025    | 0.32025    |   0.0 | 72.96
Neigh   | 0.0079108  | 0.0079108  | 0.0079108  |   0.0 |  1.80
Comm    | 0.0076582  | 0.0076582  | 0.0076582  |   0.0 |  1.74
Output  | 0.012145   | 0.012145   | 0.012145   |   0.0 |  2.77
Modify  | 0.075249   | 0.075249   | 0.075249   |   0.0 | 17.14
Other   |            | 0.0157     |            |       |  3.58

Nlocal:             10 ave          10 max          10 min
Histogram: 1 0 0 0 0 0 0 0 0 0
Nghost:              0 ave           0 max           0 min
Histogram: 1 0 0 0 0 0 0 0 0 0
Neighs:              0 ave           0 max           0 min
Histogram: 1 0 0 0 0 0 0 0 0 0
FullNghs:           90 ave          90 max          90 min
Histogram: 1 0 0 0 0 0 0 0 0 0

Total # of neighbors = 90
Ave neighs/atom = 9
Neighbor list builds = 2448
Dangerous builds = 0
write_restart 	C100/endconf/endconf*2.restart
System init for write_restart ...

#=================Cooling Phase=====================

# Re-minimize before cooling
#min_style       sd
#minimize        1.0e-5 1.0e-7 500 1000

unfix 			4
fix 			5 all temp/berendsen ${tempchauf} 0.0 ${Tdamp}
fix 			5 all temp/berendsen 3000 0.0 ${Tdamp}
fix 			5 all temp/berendsen 3000 0.0 0.001

run 			${iter}
run 			1000000
Per MPI rank memory allocation (min/avg/max) = 5.139 | 5.139 | 5.139 Mbytes
   Step          Temp          TotEng         E_pair         PotEng         KinEng    
   1100062   3065.5909     -52.440319     -56.006648     -56.006648      3.5663285    
   1101000   3156.2365     -52.700679     -56.372459     -56.372459      3.6717803    
   1102000   2949.9205     -50.308382     -53.740146     -53.740146      3.4317643    
   1103000   2805.2374     -51.214859     -54.478308     -54.478308      3.2634485    
   1104000   3190.4317     -49.867468     -53.579029     -53.579029      3.711561     
   1105000   2973.4145     -51.718672     -55.177768     -55.177768      3.4590959    
   1106000   3088.0897     -49.708074     -53.300576     -53.300576      3.5925023    
   1107000   3067.6036     -50.691895     -54.260565     -54.260565      3.56867      
   1108000   3035.3544     -52.322946     -55.854099     -55.854099      3.5311532    
   1109000   2873.2852     -51.787469     -55.13008      -55.13008       3.3426114    
   1110000   2967.6839     -52.020289     -55.472718     -55.472718      3.4524292    
   1111000   2998.1055     -50.203453     -53.691273     -53.691273      3.48782      
   1112000   2991.3988     -51.667277     -55.147294     -55.147294      3.4800177    
   1113000   2980.8153     -50.058442     -53.526148     -53.526148      3.4677056    
   1114000   2791.4513     -50.973185     -54.220595     -54.220595      3.2474105    
   1115000   2915.6113     -51.200079     -54.59193      -54.59193       3.391851     
   1116000   3029.8256     -51.040555     -54.565277     -54.565277      3.5247213    
   1117000   3038.2743     -51.578234     -55.112784     -55.112784      3.5345499    
   1118000   3089.6387     -51.504379     -55.098684     -55.098684      3.5943043    
   1119000   2973.7362     -52.935221     -56.394691     -56.394691      3.4594702    
   1120000   2833.8576     -52.206002     -55.502746     -55.502746      3.2967436    
   1121000   2965.0036     -52.497882     -55.947193     -55.947193      3.4493111    
   1122000   2989.6136     -50.719824     -54.197765     -54.197765      3.477941     
   1123000   2810.7469     -52.183683     -55.453541     -55.453541      3.269858     
   1124000   2875.8006     -52.932072     -56.27761      -56.27761       3.3455376    
   1125000   2815.0943     -52.596244     -55.871159     -55.871159      3.2749155    
   1126000   3077.0346     -51.370155     -54.949796     -54.949796      3.5796415    
   1127000   2821.9327     -52.776214     -56.059085     -56.059085      3.2828709    
   1128000   2994.0995     -53.586445     -57.069604     -57.069604      3.4831596    
   1129000   3064.9172     -48.700127     -52.265672     -52.265672      3.5655448    
   1130000   2879.2363     -52.474356     -55.823891     -55.823891      3.3495346    
   1131000   2730.6422     -49.954582     -53.131251     -53.131251      3.1766689    
   1132000   2900.1778     -51.260714     -54.63461      -54.63461       3.3738967    
   1133000   2896.1678     -51.106579     -54.47581      -54.47581       3.3692316    
   1134000   2896.9145     -52.69994      -56.07004      -56.07004       3.3701003    
   1135000   3007.6702     -51.333114     -54.832061     -54.832061      3.4989469    
   1136000   2919.3229     -51.819535     -55.215704     -55.215704      3.3961689    
   1137000   2796.2164     -49.885453     -53.138407     -53.138407      3.2529541    
   1138000   2844.9454     -51.757185     -55.066828     -55.066828      3.3096425    
   1139000   2822.7712     -49.108726     -52.392573     -52.392573      3.2838464    
   1140000   2815.7947     -52.133252     -55.408982     -55.408982      3.2757303    
   1141000   2803.5153     -51.42959      -54.691035     -54.691035      3.2614451    
   1142000   2849.9758     -53.087599     -56.403093     -56.403093      3.3154945    
   1143000   2697.0784     -51.774127     -54.911749     -54.911749      3.1376227    
   1144000   2985.1623     -50.348245     -53.821007     -53.821007      3.4727626    
   1145000   2751.0483     -51.261301     -54.461709     -54.461709      3.2004081    
   1146000   2686.2737     -52.877078     -56.002131     -56.002131      3.1250532    
   1147000   2920.8833     -52.138987     -55.536971     -55.536971      3.3979842    
   1148000   2920.3684     -50.074948     -53.472333     -53.472333      3.3973852    
   1149000   3002.6338     -51.476256     -54.969344     -54.969344      3.4930879    
   1150000   2650.7569     -51.914963     -54.998698     -54.998698      3.083735     
   1151000   2724.0628     -51.888764     -55.057779     -55.057779      3.1690148    
   1152000   2805.8224     -50.120105     -53.384234     -53.384234      3.2641291    
   1153000   2729.6525     -50.894001     -54.069518     -54.069518      3.1755175    
   1154000   2894.3275     -52.082003     -55.449094     -55.449094      3.3670907    
   1155000   2711.8897     -51.922124     -55.076978     -55.076978      3.1548533    
   1156000   2732.9426     -52.703945     -55.88329      -55.88329       3.179345     
   1157000   2858.8016     -50.771547     -54.097308     -54.097308      3.3257619    
   1158000   2638.6804     -52.883073     -55.952759     -55.952759      3.0696859    
   1159000   2732.6457     -52.186636     -55.365636     -55.365636      3.1789996    
   1160000   2842.5294     -51.314314     -54.621146     -54.621146      3.3068319    
   1161000   2805.817      -53.377535     -56.641657     -56.641657      3.2641228    
   1162000   2870.6201     -51.08923      -54.428741     -54.428741      3.3395109    
   1163000   2656.7414     -51.264747     -54.355444     -54.355444      3.090697     
   1164000   2697.2799     -52.599864     -55.737722     -55.737722      3.1378571    
   1165000   2733.3113     -51.969965     -55.149739     -55.149739      3.179774     
   1166000   2750.407      -50.655056     -53.854718     -53.854718      3.199662     
   1167000   2832.1925     -51.186802     -54.481608     -54.481608      3.2948065    
   1168000   2859.7075     -49.982319     -53.309134     -53.309134      3.3268158    
   1169000   2802.8435     -51.938137     -55.198801     -55.198801      3.2606636    
   1170000   2796.5865     -52.906167     -56.159552     -56.159552      3.2533846    
   1171000   2785.7025     -50.768893     -54.009615     -54.009615      3.2407228    
   1172000   2992.2634     -52.35287      -55.833894     -55.833894      3.4810236    
   1173000   2744.5424     -50.439471     -53.632311     -53.632311      3.1928395    
   1174000   2800.4633     -52.285675     -55.54357      -55.54357       3.2578947    
   1175000   2505.0451     -51.085207     -53.999429     -53.999429      2.9142224    
   1176000   2705.0358     -53.345303     -56.492183     -56.492183      3.1468799    
   1177000   2799.6238     -52.188195     -55.445113     -55.445113      3.256918     
   1178000   2818.0557     -51.424442     -54.702803     -54.702803      3.2783605    
   1179000   2666.8155     -51.707476     -54.809893     -54.809893      3.1024166    
   1180000   2776.4718     -50.515393     -53.745378     -53.745378      3.2299843    
   1181000   2778.8606     -52.74886      -55.981623     -55.981623      3.2327634    
   1182000   2751.9977     -51.803635     -55.005148     -55.005148      3.2015126    
   1183000   2823.6603     -51.523648     -54.808529     -54.808529      3.2848807    
   1184000   2682.6574     -50.164848     -53.285694     -53.285694      3.1208462    
   1185000   2592.0798     -52.41018      -55.425654     -55.425654      3.0154735    
   1186000   2689.7227     -50.08707      -53.216136     -53.216136      3.1290655    
   1187000   2633.1795     -51.336193     -54.399479     -54.399479      3.0632864    
   1188000   2839.5788     -51.705411     -55.008811     -55.008811      3.3033993    
   1189000   2717.8307     -52.567252     -55.729017     -55.729017      3.1617648    
   1190000   2689.4667     -54.070682     -57.19945      -57.19945       3.1287677    
   1191000   2806.8056     -50.388337     -53.65361      -53.65361       3.2652729    
   1192000   2602.8953     -53.090911     -56.118967     -56.118967      3.0280557    
   1193000   2805.0455     -50.888088     -54.151313     -54.151313      3.2632252    
   1194000   2634.4576     -53.172775     -56.237549     -56.237549      3.0647733    
   1195000   2709.6989     -51.959785     -55.11209      -55.11209       3.1523046    
   1196000   2655.279      -53.191603     -56.280599     -56.280599      3.0889957    
   1197000   2586.5863     -52.981958     -55.991041     -55.991041      3.0090826    
   1198000   2645.3925     -51.313892     -54.391386     -54.391386      3.0774944    
   1199000   2715.1111     -52.673141     -55.831742     -55.831742      3.1586009    
   1200000   2793.5673     -51.227491     -54.477363     -54.477363      3.2498722    
   1201000   2541.4728     -51.637217     -54.593817     -54.593817      2.9566003    
   1202000   2739.5547     -52.55597      -55.743007     -55.743007      3.1870371    
   1203000   2542.4199     -52.921786     -55.879488     -55.879488      2.9577021    
   1204000   2736.0923     -52.110655     -55.293664     -55.293664      3.1830092    
   1205000   2618.5279     -51.393384     -54.439626     -54.439626      3.0462417    
   1206000   2596.2083     -52.213938     -55.234215     -55.234215      3.0202763    
   1207000   2717.8732     -51.897995     -55.059809     -55.059809      3.1618141    
   1208000   2706.3309     -52.194896     -55.343282     -55.343282      3.1483865    
   1209000   2640.2979     -53.303992     -56.37556      -56.37556       3.0715676    
   1210000   2706.4384     -52.417345     -55.565857     -55.565857      3.1485116    
   1211000   2758.0775     -52.67151      -55.880095     -55.880095      3.2085855    
   1212000   2617.6165     -51.765616     -54.810798     -54.810798      3.0451813    
   1213000   2663.0755     -52.313497     -55.411563     -55.411563      3.0980657    
   1214000   2662.6453     -52.481859     -55.579424     -55.579424      3.0975653    
   1215000   2758.7835     -52.606785     -55.816192     -55.816192      3.2094068    
   1216000   2775.4148     -48.736252     -51.965007     -51.965007      3.2287547    
   1217000   2678.986      -53.952856     -57.069431     -57.069431      3.1165751    
   1218000   2621.0811     -53.063825     -56.113037     -56.113037      3.0492119    
   1219000   2732.5303     -53.300344     -56.47921      -56.47921       3.1788654    
   1220000   2670.335      -52.277881     -55.384392     -55.384392      3.106511     
   1221000   2620.0489     -51.781933     -54.829944     -54.829944      3.0480111    
   1222000   2500.0178     -51.209399     -54.117773     -54.117773      2.908374     
   1223000   2605.4112     -52.971722     -56.002704     -56.002704      3.0309825    
   1224000   2777.7223     -52.794665     -56.026104     -56.026104      3.2314391    
   1225000   2762.5833     -52.849585     -56.063412     -56.063412      3.2138273    
   1226000   2526.2376     -52.520363     -55.459239     -55.459239      2.9388765    
   1227000   2760.4997     -51.695861     -54.907265     -54.907265      3.2114033    
   1228000   2670.0112     -52.107869     -55.214003     -55.214003      3.1061343    
   1229000   2621.208      -51.742824     -54.792183     -54.792183      3.0493595    
   1230000   2383.0814     -52.836425     -55.608762     -55.608762      2.772337     
   1231000   2619.6308     -53.550732     -56.598257     -56.598257      3.0475247    
   1232000   2723.0503     -52.474037     -55.641873     -55.641873      3.1678369    
   1233000   2692.658      -53.189407     -56.321887     -56.321887      3.1324803    
   1234000   2540.7993     -53.63306      -56.588877     -56.588877      2.9558168    
   1235000   2419.4019     -50.537366     -53.351956     -53.351956      2.8145901    
   1236000   2535.8077     -51.901985     -54.851995     -54.851995      2.9500098    
   1237000   2848.7581     -52.555412     -55.86949      -55.86949       3.314078     
   1238000   2677.4395     -51.842933     -54.957709     -54.957709      3.114776     
   1239000   2625.4667     -52.704462     -55.758776     -55.758776      3.0543138    
   1240000   2489.2884     -49.741687     -52.637579     -52.637579      2.895892     
   1241000   2486.3413     -52.289982     -55.182445     -55.182445      2.8924635    
   1242000   2693.3359     -53.222071     -56.35534      -56.35534       3.1332689    
   1243000   2586.7063     -53.22419      -56.233412     -56.233412      3.0092223    
   1244000   2592.72       -50.653862     -53.67008      -53.67008       3.0162183    
   1245000   2412.6983     -50.693254     -53.500045     -53.500045      2.8067916    
   1246000   2648.145      -51.997682     -55.078378     -55.078378      3.0806965    
   1247000   2428.768      -52.582634     -55.40812      -55.40812       2.8254861    
   1248000   2553.0993     -51.729131     -54.699257     -54.699257      2.9701259    
   1249000   2571.3341     -52.207367     -55.198707     -55.198707      2.9913392    
   1250000   2431.2576     -51.79416      -54.622542     -54.622542      2.8283824    
   1251000   2576.0493     -52.926308     -55.923132     -55.923132      2.9968245    
   1252000   2507.5107     -53.139918     -56.057008     -56.057008      2.9170908    
   1253000   2513.8785     -53.600036     -56.524535     -56.524535      2.9244987    
   1254000   2655.0036     -51.95388      -55.042555     -55.042555      3.0886753    
   1255000   2457.0173     -51.399477     -54.257827     -54.257827      2.8583497    
   1256000   2452.3658     -53.541301     -56.39424      -56.39424       2.8529384    
   1257000   2613.3473     -52.907635     -55.94785      -55.94785       3.0402149    
   1258000   2570.1527     -51.762196     -54.752161     -54.752161      2.9899648    
   1259000   2512.3181     -52.780296     -55.70298      -55.70298       2.9226834    
   1260000   2581.9493     -52.159038     -55.162726     -55.162726      3.0036882    
   1261000   2515.5978     -53.769728     -56.696226     -56.696226      2.9264988    
   1262000   2311.753      -52.572298     -55.261656     -55.261656      2.6893577    
   1263000   2379.1339     -53.290246     -56.057991     -56.057991      2.7677447    
   1264000   2453.5204     -53.412217     -56.266499     -56.266499      2.8542817    
   1265000   2440.0777     -53.387413     -56.226056     -56.226056      2.8386432    
   1266000   2621.485      -51.29593      -54.345612     -54.345612      3.0496818    
   1267000   2367.5351     -53.044332     -55.798584     -55.798584      2.7542514    
   1268000   2666.406      -53.51425      -56.61619      -56.61619       3.1019403    
   1269000   2429.354      -53.161099     -55.987266     -55.987266      2.8261679    
   1270000   2392.5408     -51.780911     -54.564253     -54.564253      2.7833416    
   1271000   2618.8812     -52.291482     -55.338134     -55.338134      3.0466527    
   1272000   2402.6909     -53.675094     -56.470243     -56.470243      2.7951496    
   1273000   2514.1898     -53.746893     -56.671754     -56.671754      2.9248609    
   1274000   2531.5276     -51.967721     -54.912752     -54.912752      2.9450306    
   1275000   2476.9264     -54.023115     -56.904626     -56.904626      2.8815108    
   1276000   2370.131      -52.416388     -55.173659     -55.173659      2.7572713    
   1277000   2501.7427     -53.168443     -56.078824     -56.078824      2.9103806    
   1278000   2439.9544     -50.111366     -52.949866     -52.949866      2.8384997    
   1279000   2485.5007     -53.392902     -56.284388     -56.284388      2.8914856    
   1280000   2409.4958     -52.374992     -55.178058     -55.178058      2.8030659    
   1281000   2262.556      -51.390811     -54.022936     -54.022936      2.6321249    
   1282000   2476.7045     -53.02022      -55.901473     -55.901473      2.8812526    
   1283000   2310.6916     -53.983967     -56.67209      -56.67209       2.688123     
   1284000   2400.3083     -52.213433     -55.005811     -55.005811      2.7923778    
   1285000   2511.5521     -52.871876     -55.793668     -55.793668      2.9217923    
   1286000   2393.0617     -53.486178     -56.270126     -56.270126      2.7839475    
   1287000   2603.0315     -52.768764     -55.796978     -55.796978      3.0282141    
   1288000   2498.0783     -52.84916      -55.755277     -55.755277      2.9061177    
   1289000   2406.6652     -52.12614      -54.925913     -54.925913      2.799773     
   1290000   2394.3767     -51.730041     -54.515518     -54.515518      2.7854774    
   1291000   2421.8102     -53.342227     -56.159619     -56.159619      2.8173919    
   1292000   2486.4765     -52.723005     -55.615625     -55.615625      2.8926208    
   1293000   2466.1466     -52.048117     -54.917088     -54.917088      2.8689702    
   1294000   2540.7638     -52.221705     -55.177481     -55.177481      2.9557755    
   1295000   2261.8655     -52.366253     -54.997575     -54.997575      2.6313216    
   1296000   2515.3116     -53.092808     -56.018974     -56.018974      2.9261659    
   1297000   2335.517      -51.976192     -54.693195     -54.693195      2.7170033    
   1298000   2444.5826     -52.315956     -55.15984      -55.15984       2.8438839    
   1299000   2382.6558     -53.838368     -56.61021      -56.61021       2.7718419    
   1300000   2434.3722     -53.068951     -55.900957     -55.900957      2.8320057    
   1301000   2406.7019     -53.267108     -56.066924     -56.066924      2.7998157    
   1302000   2385.9293     -53.420158     -56.195808     -56.195808      2.7756501    
   1303000   2428.2538     -53.586356     -56.411244     -56.411244      2.8248879    
   1304000   2419.0447     -53.654132     -56.468307     -56.468307      2.8141746    
   1305000   2347.8956     -52.612795     -55.344199     -55.344199      2.731404     
   1306000   2424.6313     -52.525258     -55.345932     -55.345932      2.8206737    
   1307000   2385.6932     -54.624693     -57.400069     -57.400069      2.7753755    
   1308000   2314.5882     -52.877592     -55.570248     -55.570248      2.6926561    
   1309000   2520.5996     -52.83708      -55.769397     -55.769397      2.9323176    
   1310000   2403.2793     -52.829184     -55.625019     -55.625019      2.7958341    
   1311000   2409.653      -53.417983     -56.221232     -56.221232      2.8032489    
   1312000   2339.3076     -51.883752     -54.605165     -54.605165      2.7214131    
   1313000   2302.9851     -53.638914     -56.318072     -56.318072      2.6791577    
   1314000   2400.1995     -50.515995     -53.308246     -53.308246      2.7922512    
   1315000   2407.1621     -53.668309     -56.46866      -56.46866       2.8003511    
   1316000   2173.3873     -51.948419     -54.476811     -54.476811      2.5283912    
   1317000   2325.0526     -53.534002     -56.238831     -56.238831      2.7048297    
   1318000   2311.5028     -53.147745     -55.836812     -55.836812      2.6890667    
   1319000   2395.6758     -51.601239     -54.388227     -54.388227      2.7869886    
   1320000   2114.4371     -51.836182     -54.295994     -54.295994      2.459812     
   1321000   2378.9021     -53.046002     -55.813477     -55.813477      2.7674751    
   1322000   2334.7158     -53.278223     -55.994294     -55.994294      2.7160713    
   1323000   2299.5941     -52.971788     -55.647001     -55.647001      2.6752128    
   1324000   2407.5794     -51.07346      -53.874296     -53.874296      2.8008366    
   1325000   2313.0476     -54.773736     -57.4646       -57.4646        2.6908638    
   1326000   2300.1153     -54.154745     -56.830564     -56.830564      2.6758191    
   1327000   2257.5187     -52.786285     -55.41255      -55.41255       2.6262648    
   1328000   2359.6741     -52.973232     -55.718338     -55.718338      2.7451063    
   1329000   2284.3785     -53.574757     -56.232268     -56.232268      2.6575118    
   1330000   2287.4103     -54.215035     -56.876073     -56.876073      2.6610389    
   1331000   2256.5945     -54.21427      -56.839459     -56.839459      2.6251896    
   1332000   2259.9921     -52.407965     -55.037107     -55.037107      2.6291421    
   1333000   2314.1082     -54.505234     -57.197332     -57.197332      2.6920976    
   1334000   2566.6721     -50.277904     -53.26382      -53.26382       2.9859157    
   1335000   2262.9516     -54.539742     -57.172327     -57.172327      2.6325851    
   1336000   2359.961      -54.419794     -57.165234     -57.165234      2.7454402    
   1337000   2194.3392     -51.898511     -54.451276     -54.451276      2.5527654    
   1338000   2200.4405     -54.413652     -56.973515     -56.973515      2.5598633    
   1339000   2347.8876     -53.779347     -56.510741     -56.510741      2.7313947    
   1340000   2245.4093     -53.964392     -56.57657      -56.57657       2.6121774    
   1341000   2296.1921     -53.964528     -56.635783     -56.635783      2.6712552    
   1342000   2269.123      -54.392436     -57.032201     -57.032201      2.6397645    
   1343000   2177.5431     -52.145237     -54.678463     -54.678463      2.5332259    
   1344000   2199.8998     -53.668083     -56.227318     -56.227318      2.5592343    
   1345000   2387.9942     -51.834612     -54.612665     -54.612665      2.7780522    
   1346000   2167.1739     -53.027725     -55.548888     -55.548888      2.5211629    
   1347000   2300.2132     -53.95313      -56.629063     -56.629063      2.675933     
   1348000   2274.2822     -50.800603     -53.44637      -53.44637       2.6457664    
   1349000   2297.8985     -52.605753     -55.278993     -55.278993      2.6732402    
   1350000   2077.5242     -53.71356      -56.130429     -56.130429      2.4168697    
   1351000   2239.6299     -52.029039     -54.634493     -54.634493      2.605454     
   1352000   2253.2081     -53.182185     -55.803435     -55.803435      2.62125      
   1353000   2248.5426     -53.827767     -56.443589     -56.443589      2.6158225    
   1354000   2320.466      -51.603318     -54.302812     -54.302812      2.699494     
   1355000   2219.407      -52.832912     -55.41484      -55.41484       2.5819278    
   1356000   2199.2956     -54.034213     -56.592744     -56.592744      2.5585314    
   1357000   2295.5075     -53.384002     -56.054461     -56.054461      2.6704587    
   1358000   2135.9988     -52.969829     -55.454725     -55.454725      2.4848956    
   1359000   2285.8286     -52.414587     -55.073786     -55.073786      2.6591988    
   1360000   2156.1897     -53.708694     -56.217078     -56.217078      2.5083846    
   1361000   2236.1349     -53.757544     -56.358932     -56.358932      2.6013881    
   1362000   2416.5446     -53.073679     -55.884945     -55.884945      2.8112662    
   1363000   2097.4028     -53.302474     -55.742469     -55.742469      2.4399953    
   1364000   2236.7622     -54.199679     -56.801797     -56.801797      2.6021178    
   1365000   2295.5995     -54.250252     -56.920818     -56.920818      2.6705658    
   1366000   2251.6549     -53.339316     -55.958759     -55.958759      2.6194432    
   1367000   2070.8623     -52.627024     -55.036144     -55.036144      2.4091196    
   1368000   2195.2706     -52.419797     -54.973646     -54.973646      2.5538489    
   1369000   2128.6685     -53.511557     -55.987925     -55.987925      2.476368     
   1370000   2132.3976     -53.542096     -56.022802     -56.022802      2.4807062    
   1371000   2214.1848     -53.705455     -56.281308     -56.281308      2.5758526    
   1372000   2172.7025     -52.917657     -55.445252     -55.445252      2.5275945    
   1373000   2071.9575     -54.17179      -56.582184     -56.582184      2.4103937    
   1374000   2077.9733     -52.603776     -55.021169     -55.021169      2.4173921    
   1375000   2100.6673     -53.596208     -56.040001     -56.040001      2.443793     
   1376000   2077.205      -53.58794      -56.004439     -56.004439      2.4164984    
   1377000   2194.0097     -53.242572     -55.794954     -55.794954      2.5523821    
   1378000   2196.4595     -53.041193     -55.596425     -55.596425      2.555232     
   1379000   2189.7311     -53.822803     -56.370208     -56.370208      2.5474046    
   1380000   2269.2896     -52.522325     -55.162284     -55.162284      2.6399583    
   1381000   2131.3781     -53.56417      -56.04369      -56.04369       2.4795202    
   1382000   2157.7067     -53.4413       -55.951449     -55.951449      2.5101493    
   1383000   2119.7789     -54.031004     -56.49703      -56.49703       2.4660264    
   1384000   2092.9772     -52.695946     -55.130793     -55.130793      2.4348468    
   1385000   2150.8191     -52.569542     -55.071679     -55.071679      2.5021367    
   1386000   2140.5347     -54.391905     -56.882078     -56.882078      2.4901724    
   1387000   2142.3457     -53.916277     -56.408557     -56.408557      2.4922792    
   1388000   2160.3105     -54.223615     -56.736794     -56.736794      2.5131784    
   1389000   2090.9445     -52.866152     -55.298634     -55.298634      2.4324821    
   1390000   2113.8056     -54.861868     -57.320945     -57.320945      2.4590774    
   1391000   2143.231      -51.700998     -54.194307     -54.194307      2.4933092    
   1392000   2099.26       -54.31405      -56.756206     -56.756206      2.4421558    
   1393000   2234.667      -52.598801     -55.198482     -55.198482      2.5996805    
   1394000   2173.7486     -52.66834      -55.197151     -55.197151      2.5288115    
   1395000   2103.8516     -54.656003     -57.1035       -57.1035        2.4474975    
   1396000   2126.9916     -54.12401      -56.598428     -56.598428      2.4744172    
   1397000   2180.6303     -53.70322      -56.240038     -56.240038      2.5368173    
   1398000   2072.6042     -54.113583     -56.524729     -56.524729      2.4111461    
   1399000   2017.7841     -52.636076     -54.983447     -54.983447      2.3473716    
   1400000   2129.6885     -54.14075      -56.618304     -56.618304      2.4775546    
   1401000   2084.5942     -53.568708     -55.993803     -55.993803      2.4250946    
   1402000   2061.7737     -54.715799     -57.114345     -57.114345      2.3985465    
   1403000   2036.6863     -53.633432     -56.002793     -56.002793      2.3693613    
   1404000   2084.5495     -53.785349     -56.210391     -56.210391      2.4250425    
   1405000   2107.7541     -53.887474     -56.339511     -56.339511      2.4520374    
   1406000   1997.3353     -50.565468     -52.889051     -52.889051      2.3235827    
   1407000   1943.8786     -53.201475     -55.462869     -55.462869      2.2613942    
   1408000   2105.6574     -53.56639      -56.015988     -56.015988      2.4495982    
   1409000   2211.926      -54.368643     -56.941868     -56.941868      2.5732249    
   1410000   2047.2048     -53.391397     -55.772995     -55.772995      2.3815979    
   1411000   2140.2184     -53.635531     -56.125335     -56.125335      2.4898045    
   1412000   2044.8581     -53.327457     -55.706324     -55.706324      2.3788679    
   1413000   2020.7332     -53.870994     -56.221796     -56.221796      2.3508024    
   1414000   1945.3652     -52.687412     -54.950536     -54.950536      2.2631236    
   1415000   2075.5282     -53.731347     -56.145895     -56.145895      2.4145477    
   1416000   2050.93       -53.127305     -55.513236     -55.513236      2.3859316    
   1417000   2125.6462     -53.698689     -56.171541     -56.171541      2.472852     
   1418000   2085.3896     -52.103257     -54.529277     -54.529277      2.4260199    
   1419000   2102.8358     -52.485289     -54.931604     -54.931604      2.4463158    
   1420000   2118.7999     -53.557443     -56.02233      -56.02233       2.4648874    
   1421000   1984.6044     -53.710282     -56.019054     -56.019054      2.3087722    
   1422000   1943.2667     -53.479613     -55.740295     -55.740295      2.2606825    
   1423000   2055.2544     -53.181326     -55.572288     -55.572288      2.3909623    
   1424000   1969.8345     -53.283668     -55.575257     -55.575257      2.2915899    
   1425000   1864.2437     -52.807124     -54.975876     -54.975876      2.1687517    
   1426000   1919.9518     -54.038329     -56.271889     -56.271889      2.2335592    
   1427000   1980.9711     -53.979206     -56.283751     -56.283751      2.3045455    
   1428000   2070.9867     -54.517568     -56.926833     -56.926833      2.4092644    
   1429000   2122.3768     -53.505447     -55.974495     -55.974495      2.4690486    
   1430000   2142.2229     -53.107508     -55.599645     -55.599645      2.4921364    
   1431000   2034.2154     -54.034581     -56.401068     -56.401068      2.3664868    
   1432000   2004.089      -54.534863     -56.866302     -56.866302      2.3314395    
   1433000   1973.7313     -53.854749     -56.150872     -56.150872      2.2961232    
   1434000   1875.4282     -53.671417     -55.85318      -55.85318       2.1817631    
   1435000   2048.4071     -53.398954     -55.781951     -55.781951      2.3829966    
   1436000   1918.6485     -54.636776     -56.868819     -56.868819      2.2320431    
   1437000   1938.047      -53.410465     -55.665075     -55.665075      2.2546101    
   1438000   1956.8464     -53.4129       -55.68938      -55.68938       2.2764802    
   1439000   2023.4411     -54.743799     -57.097751     -57.097751      2.3539526    
   1440000   1896.7995     -52.168187     -54.374812     -54.374812      2.2066252    
   1441000   2106.3917     -53.490941     -55.941394     -55.941394      2.4504525    
   1442000   2043.9189     -53.715987     -56.093762     -56.093762      2.3777753    
   1443000   1943.6901     -53.757642     -56.018817     -56.018817      2.261175     
   1444000   1990.1919     -54.670099     -56.985371     -56.985371      2.3152725    
   1445000   2003.7011     -53.787335     -56.118323     -56.118323      2.3309883    
   1446000   1824.5242     -53.491995     -55.614539     -55.614539      2.1225444    
   1447000   1945.7222     -54.323375     -56.586914     -56.586914      2.263539     
   1448000   1960.2207     -54.366188     -56.646594     -56.646594      2.2804057    
   1449000   1969.426      -54.205522     -56.496636     -56.496636      2.2911146    
   1450000   1934.6142     -54.037224     -56.287841     -56.287841      2.2506166    
   1451000   2057.8226     -53.984827     -56.378777     -56.378777      2.3939501    
   1452000   1968.2011     -54.467883     -56.757573     -56.757573      2.2896896    
   1453000   1872.0135     -53.807789     -55.98558      -55.98558       2.1777907    
   1454000   1844.2186     -53.978661     -56.124117     -56.124117      2.1454557    
   1455000   1888.5224     -54.505117     -56.702113     -56.702113      2.1969961    
   1456000   1899.8282     -54.129171     -56.33932      -56.33932       2.2101486    
   1457000   1914.6127     -54.727328     -56.954676     -56.954676      2.227348     
   1458000   1908.4952     -54.608869     -56.8291       -56.8291        2.2202313    
   1459000   1946.0215     -54.547291     -56.811178     -56.811178      2.2638872    
   1460000   1879.4538     -52.996227     -55.182673     -55.182673      2.1864463    
   1461000   1904.4903     -54.532562     -56.748134     -56.748134      2.2155722    
   1462000   1900.0249     -53.514165     -55.724542     -55.724542      2.2103775    
   1463000   1913.3831     -53.779673     -56.005591     -56.005591      2.2259175    
   1464000   1830.09       -53.733919     -55.862939     -55.862939      2.1290193    
   1465000   1806.089      -51.781496     -53.882594     -53.882594      2.1010979    
   1466000   1963.4623     -54.335379     -56.619556     -56.619556      2.2841768    
   1467000   1864.4453     -54.025733     -56.194719     -56.194719      2.1689863    
   1468000   1853.418      -52.305573     -54.461731     -54.461731      2.1561577    
   1469000   1958.73       -54.518076     -56.796748     -56.796748      2.2786715    
   1470000   1897.0549     -52.509979     -54.716901     -54.716901      2.2069223    
   1471000   1922.5384     -53.437325     -55.673893     -55.673893      2.2365683    
   1472000   1830.4302     -54.080585     -56.21         -56.21          2.129415     
   1473000   1944.4654     -54.215529     -56.477606     -56.477606      2.262077     
   1474000   1858.5119     -53.613372     -55.775456     -55.775456      2.1620836    
   1475000   1901.2349     -54.817091     -57.028876     -57.028876      2.211785     
   1476000   1907.4598     -53.058265     -55.277292     -55.277292      2.2190267    
   1477000   1800.826      -54.57704      -56.672016     -56.672016      2.0949753    
   1478000   1778.6726     -54.501276     -56.570479     -56.570479      2.0692033    
   1479000   1865.515      -52.727712     -54.897942     -54.897942      2.1702307    
   1480000   1834.8734     -54.439929     -56.574513     -56.574513      2.134584     
   1481000   1885.1575     -53.640688     -55.833769     -55.833769      2.1930816    
   1482000   1834.6537     -54.18246      -56.316788     -56.316788      2.1343284    
   1483000   1759.2419     -53.990048     -56.036647     -56.036647      2.0465988    
   1484000   1870.4961     -54.280069     -56.456094     -56.456094      2.1760254    
   1485000   1862.3725     -52.344087     -54.510662     -54.510662      2.1665748    
   1486000   1842.8126     -53.578699     -55.722519     -55.722519      2.14382      
   1487000   1740.4663     -53.940923     -55.96568      -55.96568       2.0247564    
   1488000   1879.2184     -54.130731     -56.316904     -56.316904      2.1861724    
   1489000   1808.0495     -54.207684     -56.311062     -56.311062      2.1033787    
   1490000   1868.2697     -54.363295     -56.536731     -56.536731      2.1734353    
   1491000   1799.9916     -54.648587     -56.742592     -56.742592      2.0940046    
   1492000   1869.5285     -53.700334     -55.875234     -55.875234      2.1748997    
   1493000   1638.229      -52.60806      -54.513879     -54.513879      1.9058194    
   1494000   1788.1835     -53.629171     -55.709438     -55.709438      2.0802677    
   1495000   1819.9089     -54.596748     -56.713923     -56.713923      2.1171752    
   1496000   1674.748      -54.368916     -56.317219     -56.317219      1.9483035    
   1497000   1742.7508     -53.924818     -55.952232     -55.952232      2.027414     
   1498000   1784.6742     -54.696363     -56.772549     -56.772549      2.0761852    
   1499000   1817.7589     -53.628257     -55.742931     -55.742931      2.1146741    
   1500000   1851.4075     -53.88056      -56.034379     -56.034379      2.1538188    
   1501000   1782.6565     -55.127127     -57.200965     -57.200965      2.073838     
   1502000   1761.875      -54.844399     -56.894061     -56.894061      2.0496619    
   1503000   1774.9224     -54.425167     -56.490007     -56.490007      2.0648405    
   1504000   1841.9101     -54.400891     -56.543661     -56.543661      2.1427702    
   1505000   1745.4891     -53.311213     -55.341812     -55.341812      2.0305996    
   1506000   1732.7729     -55.207033     -57.222839     -57.222839      2.0158062    
   1507000   1714.0734     -54.8717       -56.865752     -56.865752      1.9940524    
   1508000   1814.5823     -54.715972     -56.82695      -56.82695       2.1109786    
   1509000   1821.1343     -54.240926     -56.359526     -56.359526      2.1186007    
   1510000   1776.6527     -54.785015     -56.851868     -56.851868      2.0668535    
   1511000   1757.7926     -53.837957     -55.882869     -55.882869      2.0449128    
   1512000   1821.6914     -53.078389     -55.197638     -55.197638      2.1192489    
   1513000   1717.1953     -54.193702     -56.191387     -56.191387      1.9976843    
   1514000   1758.4666     -54.756369     -56.802066     -56.802066      2.0456969    
   1515000   1730.9302     -53.297428     -55.31109      -55.31109       2.0136626    
   1516000   1755.7063     -54.434932     -56.477417     -56.477417      2.0424857    
   1517000   1761.1645     -54.800714     -56.849549     -56.849549      2.0488354    
   1518000   1727.3696     -54.231777     -56.241298     -56.241298      2.0095204    
   1519000   1787.5613     -54.463314     -56.542858     -56.542858      2.0795438    
   1520000   1811.7157     -53.11846      -55.226104     -55.226104      2.1076437    
   1521000   1718.6425     -54.88366      -56.883028     -56.883028      1.9993678    
   1522000   1702.7148     -54.278481     -56.25932      -56.25932       1.9808385    
   1523000   1719.41       -52.906409     -54.90667      -54.90667       2.0002607    
   1524000   1671.9033     -53.536205     -55.481199     -55.481199      1.9449942    
   1525000   1762.7743     -54.687212     -56.73792      -56.73792       2.0507082    
   1526000   1871.2253     -53.929007     -56.10588      -56.10588       2.1768736    
   1527000   1791.9164     -54.487192     -56.571803     -56.571803      2.0846104    
   1528000   1747.416      -54.266089     -56.29893      -56.29893       2.0328412    
   1529000   1768.0579     -54.52503      -56.581884     -56.581884      2.0568548    
   1530000   1716.1978     -54.531147     -56.527671     -56.527671      1.9965238    
   1531000   1624.4925     -55.216865     -57.106705     -57.106705      1.8898393    
   1532000   1669.7481     -54.612526     -56.555013     -56.555013      1.9424869    
   1533000   1701.8738     -55.086509     -57.06637      -57.06637       1.9798601    
   1534000   1630.075      -53.647533     -55.543867     -55.543867      1.8963335    
   1535000   1678.4456     -55.533213     -57.485819     -57.485819      1.9526051    
   1536000   1743.3533     -54.795939     -56.824054     -56.824054      2.0281149    
   1537000   1730.5089     -54.760233     -56.773405     -56.773405      2.0131724    
   1538000   1716.5732     -54.323914     -56.320875     -56.320875      1.9969605    
   1539000   1708.6826     -54.478444     -56.466225     -56.466225      1.987781     
   1540000   1691.6703     -54.850275     -56.818265     -56.818265      1.9679899    
   1541000   1738.9405     -52.886684     -54.909666     -54.909666      2.0229813    
   1542000   1749.3464     -55.012833     -57.047919     -57.047919      2.035087     
   1543000   1613.846      -52.267013     -54.144467     -54.144467      1.8774537    
   1544000   1643.1062     -54.639133     -56.550626     -56.550626      1.9114933    
   1545000   1688.5099     -54.470833     -56.435146     -56.435146      1.9643133    
   1546000   1606.8259     -54.927477     -56.796764     -56.796764      1.8692869    
   1547000   1648.6311     -54.98119      -56.899111     -56.899111      1.9179206    
   1548000   1650.5894     -54.812431     -56.73263      -56.73263       1.9201989    
   1549000   1692.0005     -54.817859     -56.786233     -56.786233      1.968374     
   1550000   1625.4176     -53.988252     -55.879167     -55.879167      1.8909155    
   1551000   1649.388      -55.073168     -56.991969     -56.991969      1.9188012    
   1552000   1764.6414     -51.462671     -53.515552     -53.515552      2.0528802    
   1553000   1560.8125     -55.286026     -57.101783     -57.101783      1.8157576    
   1554000   1682.5092     -55.545862     -57.503195     -57.503195      1.9573325    
   1555000   1715.5563     -54.205112     -56.200889     -56.200889      1.9957775    
   1556000   1631.9553     -52.236236     -54.134757     -54.134757      1.8985211    
   1557000   1605.8408     -55.420852     -57.288993     -57.288993      1.868141     
   1558000   1691.0178     -54.356097     -56.323328     -56.323328      1.9672308    
   1559000   1611.8863     -54.566979     -56.442153     -56.442153      1.8751739    
   1560000   1621.182      -55.053728     -56.939716     -56.939716      1.8859879    
   1561000   1526.2673     -54.39477      -56.170339     -56.170339      1.7755698    
   1562000   1576.2876     -54.532734     -56.366494     -56.366494      1.8337605    
   1563000   1579.7576     -54.271582     -56.10938      -56.10938       1.8377972    
   1564000   1564.8036     -54.600853     -56.421254     -56.421254      1.8204006    
   1565000   1544.2027     -53.79548      -55.591914     -55.591914      1.7964348    
   1566000   1458.5985     -53.463072     -55.15992      -55.15992       1.6968479    
   1567000   1582.3618     -54.536314     -56.377141     -56.377141      1.8408269    
   1568000   1582.4257     -54.610461     -56.451362     -56.451362      1.8409012    
   1569000   1582.6092     -54.211798     -56.052913     -56.052913      1.8411147    
   1570000   1563.1377     -54.718299     -56.536762     -56.536762      1.8184627    
   1571000   1641.4261     -52.908421     -54.81796      -54.81796       1.9095388    
   1572000   1557.4293     -54.94103      -56.752852     -56.752852      1.8118219    
   1573000   1517.1544     -54.514036     -56.279004     -56.279004      1.7649683    
   1574000   1561.571      -54.595555     -56.412195     -56.412195      1.8166401    
   1575000   1635.4036     -55.288523     -57.191056     -57.191056      1.9025326    
   1576000   1545.8964     -53.584149     -55.382554     -55.382554      1.7984052    
   1577000   1532.6952     -53.664896     -55.447944     -55.447944      1.7830477    
   1578000   1538.7214     -54.701623     -56.491681     -56.491681      1.7900581    
   1579000   1557.7581     -54.680906     -56.493111     -56.493111      1.8122043    
   1580000   1635.4599     -53.578332     -55.48093      -55.48093       1.9025981    
   1581000   1538.9572     -54.15047      -55.940803     -55.940803      1.7903325    
   1582000   1529.0788     -55.141326     -56.920167     -56.920167      1.7788406    
   1583000   1515.9511     -54.933295     -56.696864     -56.696864      1.7635686    
   1584000   1545.736      -54.953112     -56.751331     -56.751331      1.7982185    
   1585000   1576.7576     -55.075821     -56.910128     -56.910128      1.8343073    
   1586000   1395.9984     -52.877945     -54.501968     -54.501968      1.6240226    
   1587000   1537.7855     -55.638683     -57.427652     -57.427652      1.7889694    
   1588000   1448.6593     -53.132992     -54.818277     -54.818277      1.6852853    
   1589000   1514.7277     -54.860764     -56.62291      -56.62291       1.7621452    
   1590000   1506.2593     -55.157563     -56.909857     -56.909857      1.7522937    
   1591000   1558.1852     -54.923011     -56.735712     -56.735712      1.8127012    
   1592000   1552.4726     -54.602402     -56.408458     -56.408458      1.8060555    
   1593000   1593.9951     -55.181538     -57.035898     -57.035898      1.8543604    
   1594000   1456.7924     -54.886278     -56.581025     -56.581025      1.6947468    
   1595000   1454.3416     -55.117724     -56.809619     -56.809619      1.6918957    
   1596000   1485.8569     -55.815739     -57.544298     -57.544298      1.7285587    
   1597000   1434.5945     -52.751826     -54.42075      -54.42075       1.668923     
   1598000   1460.3229     -54.97871      -56.677564     -56.677564      1.6988539    
   1599000   1486.2058     -55.546351     -57.275315     -57.275315      1.7289645    
   1600000   1561.5609     -54.917265     -56.733894     -56.733894      1.8166283    
   1601000   1528.9572     -54.207316     -55.986015     -55.986015      1.7786991    
   1602000   1476.4093     -54.649724     -56.367292     -56.367292      1.717568     
   1603000   1495.8937     -55.278219     -57.018454     -57.018454      1.740235     
   1604000   1410.4739     -53.286227     -54.927089     -54.927089      1.6408626    
   1605000   1512.4817     -54.746638     -56.50617      -56.50617       1.7595324    
   1606000   1471.3839     -54.700593     -56.412315     -56.412315      1.7117217    
   1607000   1503.3855     -54.559093     -56.308044     -56.308044      1.7489504    
   1608000   1545.0708     -55.177099     -56.974544     -56.974544      1.7974446    
   1609000   1519.2774     -54.144653     -55.912091     -55.912091      1.7674382    
   1610000   1510.0146     -54.081409     -55.838072     -55.838072      1.7566623    
   1611000   1444.3113     -55.30301      -56.983237     -56.983237      1.680227     
   1612000   1435.4777     -55.455277     -57.125227     -57.125227      1.6699505    
   1613000   1481.8403     -55.149118     -56.873004     -56.873004      1.7238861    
   1614000   1449.9684     -54.505422     -56.192231     -56.192231      1.6868081    
   1615000   1348.016      -54.566885     -56.135087     -56.135087      1.5682027    
   1616000   1432.0502     -54.860241     -56.526205     -56.526205      1.6659631    
   1617000   1403.2893     -53.37488      -55.007384     -55.007384      1.6325044    
   1618000   1449.9509     -55.436724     -57.123511     -57.123511      1.6867877    
   1619000   1516.5049     -55.295352     -57.059565     -57.059565      1.7642128    
   1620000   1435.1394     -54.249312     -55.918869     -55.918869      1.6695569    
   1621000   1454.8785     -54.686357     -56.378877     -56.378877      1.6925202    
   1622000   1398.9787     -54.812095     -56.439585     -56.439585      1.6274897    
   1623000   1407.961      -54.622392     -56.260332     -56.260332      1.6379392    
   1624000   1406.8568     -54.804314     -56.440968     -56.440968      1.6366546    
   1625000   1494.9461     -54.231999     -55.971131     -55.971131      1.7391325    
   1626000   1326.3434     -54.437695     -55.980685     -55.980685      1.5429901    
   1627000   1408.6192     -55.396308     -57.035013     -57.035013      1.6387049    
   1628000   1400.303      -55.219198     -56.848228     -56.848228      1.6290303    
   1629000   1446.748      -54.856679     -56.53974      -56.53974       1.6830617    
   1630000   1424.9192     -54.572533     -56.2302       -56.2302        1.6576674    
   1631000   1400.1262     -54.809565     -56.438389     -56.438389      1.6288246    
   1632000   1408.9226     -54.344564     -55.983622     -55.983622      1.6390578    
   1633000   1413.1907     -54.60939      -56.253413     -56.253413      1.6440231    
   1634000   1398.9726     -55.186042     -56.813524     -56.813524      1.6274826    
   1635000   1368.9605     -54.476785     -56.069353     -56.069353      1.5925683    
   1636000   1391.6726     -55.411627     -57.030617     -57.030617      1.6189902    
   1637000   1396.2495     -54.825135     -56.44945      -56.44945       1.6243147    
   1638000   1349.6084     -54.37966      -55.949715     -55.949715      1.5700551    
   1639000   1341.7421     -55.108054     -56.668958     -56.668958      1.560904     
   1640000   1383.5174     -55.328446     -56.937949     -56.937949      1.6095029    
   1641000   1434.388      -54.887025     -56.555708     -56.555708      1.6686829    
   1642000   1364.6327     -54.097641     -55.685175     -55.685175      1.5875336    
   1643000   1320.9635     -55.613012     -57.149743     -57.149743      1.5367314    
   1644000   1376.3006     -55.250982     -56.852089     -56.852089      1.6011073    
   1645000   1361.3982     -53.66714      -55.250911     -55.250911      1.5837707    
   1646000   1357.6308     -54.857406     -56.436794     -56.436794      1.579388     
   1647000   1348.5813     -55.590408     -57.159269     -57.159269      1.5688604    
   1648000   1382.2156     -55.314891     -56.92288      -56.92288       1.6079885    
   1649000   1416.4113     -54.317659     -55.965429     -55.965429      1.6477698    
   1650000   1342.1355     -55.48396      -57.045321     -57.045321      1.5613616    
   1651000   1359.3846     -54.910336     -56.491764     -56.491764      1.5814283    
   1652000   1269.3854     -54.575881     -56.052609     -56.052609      1.4767284    
   1653000   1286.0935     -55.380196     -56.876362     -56.876362      1.4961657    
   1654000   1311.5338     -55.590537     -57.116298     -57.116298      1.5257615    
   1655000   1275.7765     -54.800531     -56.284695     -56.284695      1.4841634    
   1656000   1344.7581     -55.675526     -57.239939     -57.239939      1.5644126    
   1657000   1304.5997     -54.492772     -56.010467     -56.010467      1.5176948    
   1658000   1236.8807     -53.972306     -55.41122      -55.41122       1.4389144    
   1659000   1376.0822     -55.055941     -56.656794     -56.656794      1.6008533    
   1660000   1311.2107     -55.343338     -56.868724     -56.868724      1.5253856    
   1661000   1286.3556     -54.775883     -56.272354     -56.272354      1.4964706    
   1662000   1279.3832     -55.024447     -56.512807     -56.512807      1.4883593    
   1663000   1285.3447     -54.592241     -56.087536     -56.087536      1.4952946    
   1664000   1291.4973     -55.804778     -57.30723      -57.30723       1.5024522    
   1665000   1330.588      -54.684469     -56.232397     -56.232397      1.547928     
   1666000   1283.9675     -55.730765     -57.224457     -57.224457      1.4936924    
   1667000   1262.6197     -55.32087      -56.789728     -56.789728      1.4688577    
   1668000   1293.9732     -55.19315      -56.698482     -56.698482      1.5053325    
   1669000   1265.0128     -54.402177     -55.873818     -55.873818      1.4716416    
   1670000   1286.7137     -55.559267     -57.056155     -57.056155      1.4968872    
   1671000   1208.6992     -54.409802     -55.815931     -55.815931      1.4061297    
   1672000   1282.2967     -55.080767     -56.572516     -56.572516      1.4917487    
   1673000   1292.1276     -55.266862     -56.770047     -56.770047      1.5031854    
   1674000   1237.0358     -56.02659      -57.465685     -57.465685      1.4390948    
   1675000   1242.4902     -55.147451     -56.592891     -56.592891      1.4454402    
   1676000   1288.5561     -55.546268     -57.045299     -57.045299      1.4990305    
   1677000   1238.8687     -55.426119     -56.867346     -56.867346      1.4412271    
   1678000   1265.6439     -54.983744     -56.45612      -56.45612       1.4723759    
   1679000   1322.0114     -55.00797      -56.545921     -56.545921      1.5379505    
   1680000   1252.2911     -56.062851     -57.519693     -57.519693      1.456842     
   1681000   1241.37       -53.357973     -54.80211      -54.80211       1.444137     
   1682000   1204.9182     -55.235389     -56.63712      -56.63712       1.4017311    
   1683000   1227.9476     -55.38699      -56.815512     -56.815512      1.4285221    
   1684000   1222.837      -55.043484     -56.466061     -56.466061      1.4225768    
   1685000   1375.4832     -53.503739     -55.103895     -55.103895      1.6001565    
   1686000   1244.8658     -55.441609     -56.889813     -56.889813      1.4482038    
   1687000   1224.8414     -55.870269     -57.295177     -57.295177      1.4249086    
   1688000   1215.3638     -55.385526     -56.799409     -56.799409      1.4138829    
   1689000   1285.0142     -55.078006     -56.572916     -56.572916      1.4949101    
   1690000   1257.0501     -56.039994     -57.502373     -57.502373      1.4623783    
   1691000   1178.0177     -55.100433     -56.47087      -56.47087       1.3704366    
   1692000   1211.2662     -56.032589     -57.441705     -57.441705      1.409116     
   1693000   1287.541      -54.810387     -56.308237     -56.308237      1.4978497    
   1694000   1219.211      -55.210754     -56.629112     -56.629112      1.4183585    
   1695000   1225.2551     -55.943774     -57.369164     -57.369164      1.4253899    
   1696000   1187.2754     -55.807812     -57.189018     -57.189018      1.3812065    
   1697000   1169.1477     -55.44072      -56.800838     -56.800838      1.3601178    
   1698000   1270.8964     -54.668983     -56.147469     -56.147469      1.4784862    
   1699000   1155.9983     -54.483419     -55.828239     -55.828239      1.3448205    
   1700000   1246.2563     -55.238267     -56.688089     -56.688089      1.4498214    
   1701000   1230.0445     -55.292617     -56.723579     -56.723579      1.4309616    
   1702000   1169.9643     -55.308424     -56.669491     -56.669491      1.3610677    
   1703000   1186.8551     -55.017602     -56.398319     -56.398319      1.3807175    
   1704000   1124.2488     -55.874873     -57.182758     -57.182758      1.307885     
   1705000   1136.6488     -55.466465     -56.788776     -56.788776      1.3223106    
   1706000   1164.1881     -54.979663     -56.334011     -56.334011      1.3543481    
   1707000   1119.3384     -55.572846     -56.875019     -56.875019      1.3021726    
   1708000   1150.4642     -54.775158     -56.11354      -56.11354       1.3383825    
   1709000   1141.7495     -56.143336     -57.47158      -57.47158       1.3282444    
   1710000   1192.3113     -56.160363     -57.547428     -57.547428      1.387065     
   1711000   1184.6439     -54.017598     -55.395743     -55.395743      1.3781452    
   1712000   1110.1656     -54.954347     -56.245849     -56.245849      1.2915015    
   1713000   1145.0515     -56.116269     -57.448355     -57.448355      1.3320857    
   1714000   1161.1286     -56.060974     -57.411763     -57.411763      1.3507888    
   1715000   1239.3602     -55.323446     -56.765245     -56.765245      1.4417989    
   1716000   1153.8118     -55.604528     -56.946805     -56.946805      1.342277     
   1717000   1120.0617     -54.942056     -56.24507      -56.24507       1.3030141    
   1718000   1186.8728     -54.798554     -56.179292     -56.179292      1.3807382    
   1719000   1091.0127     -54.267749     -55.536969     -55.536969      1.2692202    
   1720000   1161.5032     -55.77664      -57.127864     -57.127864      1.3512246    
   1721000   1135.9255     -56.259916     -57.581385     -57.581385      1.321469     
   1722000   1180.5582     -54.32947      -55.702862     -55.702862      1.3733921    
   1723000   1129.3142     -56.081798     -57.395576     -57.395576      1.3137779    
   1724000   1113.4466     -55.786963     -57.082281     -57.082281      1.2953184    
   1725000   1127.1656     -56.02611      -57.337388     -57.337388      1.3112783    
   1726000   1115.3024     -55.435093     -56.73257      -56.73257       1.2974774    
   1727000   1113.3152     -55.684012     -56.979177     -56.979177      1.2951655    
   1728000   1087.7375     -55.927978     -57.193388     -57.193388      1.26541      
   1729000   1115.945      -55.42409      -56.722315     -56.722315      1.2982249    
   1730000   1110.7341     -56.245361     -57.537524     -57.537524      1.2921628    
   1731000   1113.8171     -55.090774     -56.386524     -56.386524      1.2957494    
   1732000   1126.3062     -55.757362     -57.067641     -57.067641      1.3102785    
   1733000   1092.478      -55.719699     -56.990624     -56.990624      1.2709248    
   1734000   1078.0323     -55.182535     -56.436655     -56.436655      1.2541194    
   1735000   1083.6614     -55.886742     -57.14741      -57.14741       1.2606681    
   1736000   1061.8293     -55.619586     -56.854855     -56.854855      1.2352699    
   1737000   1114.4171     -56.18877      -57.485217     -57.485217      1.2964475    
   1738000   1110.8941     -55.784494     -57.076843     -57.076843      1.292349     
   1739000   1048.324      -55.414084     -56.633643     -56.633643      1.2195586    
   1740000   1061.5369     -56.284355     -57.519284     -57.519284      1.2349297    
   1741000   1073.8284     -56.145612     -57.394841     -57.394841      1.249229     
   1742000   1036.7591     -54.455446     -55.661551     -55.661551      1.2061047    
   1743000   1118.6369     -55.400292     -56.701649     -56.701649      1.3013565    
   1744000   1057.7032     -55.987655     -57.218125     -57.218125      1.2304699    
   1745000   1050.1576     -55.831912     -57.053604     -57.053604      1.2216917    
   1746000   1078.8109     -55.785714     -57.040739     -57.040739      1.2550253    
   1747000   1050.0131     -55.927984     -57.149508     -57.149508      1.2215236    
   1748000   1002.8263     -55.097031     -56.26366      -56.26366       1.1666292    
   1749000   1048.427      -56.148997     -57.368675     -57.368675      1.2196784    
   1750000   1001.0737     -55.476651     -56.641241     -56.641241      1.1645904    
   1751000   1041.3082     -55.241598     -56.452995     -56.452995      1.2113968    
   1752000   1078.4972     -55.815616     -57.070276     -57.070276      1.2546603    
   1753000   1059.897      -56.196252     -57.429274     -57.429274      1.2330219    
   1754000   1088.1611     -55.419062     -56.684965     -56.684965      1.2659028    
   1755000   1009.9599     -56.275473     -57.450401     -57.450401      1.1749281    
   1756000   1028.9977     -56.254473     -57.451548     -57.451548      1.1970755    
   1757000   1049.1744     -56.222498     -57.443046     -57.443046      1.220548     
   1758000   1002.0603     -56.012861     -57.178599     -57.178599      1.1657381    
   1759000   1055.2392     -55.747252     -56.974855     -56.974855      1.2276033    
   1760000   1045.3992     -55.827825     -57.043981     -57.043981      1.2161561    
   1761000   1022.988      -55.483538     -56.673623     -56.673623      1.1900842    
   1762000   1044.649      -56.002144     -57.217427     -57.217427      1.2152834    
   1763000   1010.2088     -56.055402     -57.230619     -57.230619      1.1752176    
   1764000   1050.5704     -55.53426      -56.756431     -56.756431      1.2221719    
   1765000   982.86494     -55.919255     -57.062662     -57.062662      1.1434074    
   1766000   985.01061     -55.898302     -57.044206     -57.044206      1.1459035    
   1767000   1028.4824     -55.960842     -57.157318     -57.157318      1.1964761    
   1768000   1012.5673     -56.114966     -57.292927     -57.292927      1.1779614    
   1769000   998.78575     -55.134743     -56.296671     -56.296671      1.1619287    
   1770000   966.27798     -56.184774     -57.308885     -57.308885      1.1241111    
   1771000   993.44919     -56.052444     -57.208164     -57.208164      1.1557205    
   1772000   976.66381     -55.742754     -56.878948     -56.878948      1.1361933    
   1773000   980.17204     -55.872609     -57.012883     -57.012883      1.1402746    
   1774000   970.37811     -56.093351     -57.222232     -57.222232      1.1288809    
   1775000   1010.9004     -55.197621     -56.373643     -56.373643      1.1760222    
   1776000   991.10146     -56.368827     -57.521816     -57.521816      1.1529893    
   1777000   974.18505     -55.995636     -57.128946     -57.128946      1.1333097    
   1778000   930.29507     -54.508444     -55.590695     -55.590695      1.0822507    
   1779000   988.61951     -56.015222     -57.165324     -57.165324      1.1501019    
   1780000   940.18881     -56.066225     -57.159986     -57.159986      1.0937605    
   1781000   984.76142     -56.026332     -57.171946     -57.171946      1.1456136    
   1782000   955.63516     -56.013516     -57.125246     -57.125246      1.1117299    
   1783000   944.19319     -56.039882     -57.138301     -57.138301      1.0984189    
   1784000   948.93359     -55.641586     -56.74552      -56.74552       1.1039336    
   1785000   961.42358     -55.963645     -57.082109     -57.082109      1.1184638    
   1786000   954.30136     -56.117553     -57.227731     -57.227731      1.1101782    
   1787000   955.19615     -55.572533     -56.683752     -56.683752      1.1112191    
   1788000   942.60289     -54.930919     -56.027488     -56.027488      1.0965689    
   1789000   930.0506      -55.984648     -57.066615     -57.066615      1.0819663    
   1790000   953.23886     -56.163912     -57.272854     -57.272854      1.1089421    
   1791000   897.11565     -56.050377     -57.094029     -57.094029      1.0436517    
   1792000   898.30619     -55.309235     -56.354272     -56.354272      1.0450367    
   1793000   907.13314     -56.267596     -57.322901     -57.322901      1.0553055    
   1794000   922.44968     -54.598821     -55.671945     -55.671945      1.0731238    
   1795000   893.05296     -55.751165     -56.79009      -56.79009       1.0389254    
   1796000   930.8344      -55.939409     -57.022287     -57.022287      1.0828781    
   1797000   950.78613     -55.541327     -56.647416     -56.647416      1.1060888    
   1798000   866.84533     -55.951475     -56.959912     -56.959912      1.008437     
   1799000   858.99628     -56.24425      -57.243556     -57.243556      0.99930586   
   1800000   892.62873     -55.964015     -57.002447     -57.002447      1.0384319    
   1801000   900.73658     -55.483194     -56.531058     -56.531058      1.0478641    
   1802000   854.6317      -55.881391     -56.875619     -56.875619      0.99422836   
   1803000   877.65093     -56.54848      -57.569488     -57.569488      1.0210076    
   1804000   888.57126     -56.227285     -57.260997     -57.260997      1.0337116    
   1805000   923.23747     -55.021584     -56.095624     -56.095624      1.0740403    
   1806000   855.48002     -56.310257     -57.305472     -57.305472      0.99521525   
   1807000   853.89689     -56.003578     -56.996951     -56.996951      0.99337352   
   1808000   875.50268     -56.507635     -57.526144     -57.526144      1.0185084    
   1809000   903.0145      -55.068431     -56.118945     -56.118945      1.0505141    
   1810000   884.90177     -55.716671     -56.746114     -56.746114      1.0294428    
   1811000   879.15173     -56.74648      -57.769234     -57.769234      1.0227535    
   1812000   903.26779     -56.063364     -57.114173     -57.114173      1.0508087    
   1813000   869.9103      -56.309204     -57.321207     -57.321207      1.0120026    
   1814000   846.25596     -55.454266     -56.43875      -56.43875       0.98448452   
   1815000   840.29551     -55.924182     -56.901733     -56.901733      0.97755048   
   1816000   847.95357     -56.5916       -57.578059     -57.578059      0.98645941   
   1817000   896.92698     -56.520329     -57.563761     -57.563761      1.0434322    
   1818000   813.14753     -55.771417     -56.717385     -56.717385      0.94596811   
   1819000   838.47244     -56.305428     -57.280857     -57.280857      0.97542962   
   1820000   829.61453     -56.336378     -57.301503     -57.301503      0.96512486   
   1821000   848.67506     -55.928203     -56.915502     -56.915502      0.98729875   
   1822000   837.68444     -56.796765     -57.771278     -57.771278      0.9745129    
   1823000   848.63157     -56.123081     -57.110329     -57.110329      0.98724816   
   1824000   817.51144     -55.57653      -56.527575     -56.527575      0.95104482   
   1825000   818.98236     -56.114892     -57.067648     -57.067648      0.95275601   
   1826000   788.33841     -55.998685     -56.915792     -56.915792      0.91710664   
   1827000   789.19114     -56.293116     -57.211214     -57.211214      0.91809865   
   1828000   799.31949     -56.191833     -57.121715     -57.121715      0.92988138   
   1829000   846.7954      -55.691855     -56.676967     -56.676967      0.98511206   
   1830000   787.6102      -56.233186     -57.149446     -57.149446      0.91625948   
   1831000   785.47951     -56.545456     -57.459237     -57.459237      0.91378076   
   1832000   804.98514     -56.40554      -57.342012     -57.342012      0.93647246   
   1833000   806.99606     -56.676108     -57.61492      -57.61492       0.93881185   
   1834000   786.96329     -56.363031     -57.278538     -57.278538      0.9155069    
   1835000   783.61519     -56.286595     -57.198207     -57.198207      0.91161191   
   1836000   793.19698     -55.7144       -56.637159     -56.637159      0.92275881   
   1837000   765.77777     -56.63719      -57.528051     -57.528051      0.89086091   
   1838000   817.2627      -55.852584     -56.80334      -56.80334       0.95075545   
   1839000   777.185       -56.645054     -57.549186     -57.549186      0.90413141   
   1840000   779.2098      -55.476152     -56.382639     -56.382639      0.90648694   
   1841000   777.19857     -56.534884     -57.439031     -57.439031      0.9041472    
   1842000   792.44029     -56.009349     -56.931227     -56.931227      0.92187853   
   1843000   796.26272     -55.950052     -56.876378     -56.876378      0.92632532   
   1844000   757.40074     -56.362118     -57.243234     -57.243234      0.88111556   
   1845000   726.19792     -56.186009     -57.030825     -57.030825      0.84481603   
   1846000   766.30746     -56.843355     -57.734832     -57.734832      0.89147712   
   1847000   746.82942     -56.013467     -56.882285     -56.882285      0.86881751   
   1848000   748.24388     -56.700025     -57.570488     -57.570488      0.87046301   
   1849000   777.47537     -55.524918     -56.429388     -56.429388      0.90446921   
   1850000   741.05301     -56.88997      -57.752068     -57.752068      0.86209757   
   1851000   710.63457     -56.014371     -56.841082     -56.841082      0.82671055   
   1852000   739.85316     -56.672786     -57.533488     -57.533488      0.86070174   
   1853000   758.67991     -56.573513     -57.456117     -57.456117      0.88260368   
   1854000   731.62948     -56.324043     -57.175178     -57.175178      0.85113479   
   1855000   728.85555     -56.298535     -57.146443     -57.146443      0.84790777   
   1856000   763.92238     -56.885549     -57.774252     -57.774252      0.88870246   
   1857000   775.27836     -56.019611     -56.921524     -56.921524      0.90191334   
   1858000   693.11241     -56.319219     -57.125545     -57.125545      0.80632629   
   1859000   734.79804     -56.687854     -57.542675     -57.542675      0.85482092   
   1860000   713.50696     -56.041835     -56.871887     -56.871887      0.83005212   
   1861000   726.35388     -56.450309     -57.295306     -57.295306      0.84499747   
   1862000   711.95684     -56.702797     -57.531046     -57.531046      0.8282488    
   1863000   723.62229     -56.356945     -57.198765     -57.198765      0.8418197    
   1864000   706.19929     -56.253895     -57.075446     -57.075446      0.8215508    
   1865000   726.12783     -56.740198     -57.584933     -57.584933      0.8447345    
   1866000   682.8896      -56.191673     -56.986107     -56.986107      0.79443367   
   1867000   680.04591     -56.520787     -57.311912     -57.311912      0.7911255    
   1868000   683.69331     -56.71109      -57.506459     -57.506459      0.79536867   
   1869000   689.21621     -56.412976     -57.214769     -57.214769      0.80179369   
   1870000   656.32576     -56.573409     -57.336939     -57.336939      0.76353087   
   1871000   688.28439     -56.731708     -57.532417     -57.532417      0.80070966   
   1872000   681.85243     -56.404003     -57.19723      -57.19723       0.7932271    
   1873000   677.52155     -56.290771     -57.07896      -57.07896       0.7881888    
   1874000   672.82919     -56.87299      -57.65572      -57.65572       0.78272999   
   1875000   712.00265     -56.670218     -57.49852      -57.49852       0.8283021    
   1876000   654.77188     -55.977163     -56.738886     -56.738886      0.76172317   
   1877000   681.63891     -56.896367     -57.689345     -57.689345      0.7929787    
   1878000   660.69061     -55.912533     -56.681141     -56.681141      0.76860868   
   1879000   670.39938     -56.462869     -57.242772     -57.242772      0.77990329   
   1880000   669.10446     -56.56238      -57.340777     -57.340777      0.77839686   
   1881000   678.63889     -56.649725     -57.439214     -57.439214      0.78948865   
   1882000   644.4499      -56.874882     -57.624597     -57.624597      0.74971519   
   1883000   661.1422      -56.436312     -57.205446     -57.205446      0.76913402   
   1884000   661.49517     -56.513187     -57.282732     -57.282732      0.76954465   
   1885000   623.71017     -56.872621     -57.598209     -57.598209      0.72558781   
   1886000   648.46486     -56.7235       -57.477886     -57.477886      0.75438596   
   1887000   630.12819     -56.397853     -57.130907     -57.130907      0.73305415   
   1888000   622.43692     -56.237342     -56.961449     -56.961449      0.72410658   
   1889000   653.0727      -56.454361     -57.214108     -57.214108      0.75974644   
   1890000   641.0571      -57.154419     -57.900188     -57.900188      0.74576821   
   1891000   611.88199     -56.323883     -57.03571      -57.03571       0.7118276    
   1892000   625.27791     -56.748381     -57.475792     -57.475792      0.72741162   
   1893000   640.37976     -57.061236     -57.806216     -57.806216      0.74498022   
   1894000   627.46463     -56.67377      -57.403725     -57.403725      0.72995552   
   1895000   631.02239     -56.430932     -57.165026     -57.165026      0.73409441   
   1896000   613.73338     -56.69333      -57.407312     -57.407312      0.71398139   
   1897000   639.8212      -56.943793     -57.688123     -57.688123      0.74433043   
   1898000   601.41484     -56.195451     -56.895102     -56.895102      0.69965073   
   1899000   605.04782     -56.475024     -57.178901     -57.178901      0.70387712   
   1900000   567.39623     -56.800509     -57.460585     -57.460585      0.66007547   
   1901000   598.07864     -57.026775     -57.722544     -57.722544      0.69576958   
   1902000   590.56712     -56.781778     -57.468809     -57.468809      0.68703113   
   1903000   579.18547     -57.096128     -57.769919     -57.769919      0.67379038   
   1904000   622.69917     -56.228423     -56.952835     -56.952835      0.72441167   
   1905000   600.04696     -56.898841     -57.596901     -57.596901      0.69805941   
   1906000   586.49705     -56.813196     -57.495492     -57.495492      0.68229624   
   1907000   571.38291     -57.041127     -57.70584      -57.70584       0.66471334   
   1908000   591.78252     -56.810661     -57.499107     -57.499107      0.68844505   
   1909000   583.47512     -56.878086     -57.556867     -57.556867      0.67878071   
   1910000   581.33843     -56.533382     -57.209677     -57.209677      0.67629501   
   1911000   575.48283     -57.164918     -57.834401     -57.834401      0.66948294   
   1912000   581.77542     -56.49053      -57.167333     -57.167333      0.67680338   
   1913000   537.83695     -56.516198     -57.141886     -57.141886      0.62568794   
   1914000   577.33407     -56.788897     -57.460533     -57.460533      0.67163658   
   1915000   558.67416     -57.174314     -57.824243     -57.824243      0.64992873   
   1916000   571.4269      -56.624365     -57.28913      -57.28913       0.66476452   
   1917000   549.54948     -56.412991     -57.052304     -57.052304      0.63931361   
   1918000   545.27142     -57.034241     -57.668578     -57.668578      0.63433676   
   1919000   548.12266     -56.662493     -57.300147     -57.300147      0.63765373   
   1920000   541.64912     -56.900032     -57.530155     -57.530155      0.63012279   
   1921000   512.86015     -56.581813     -57.178444     -57.178444      0.59663139   
   1922000   523.29065     -57.191608     -57.800373     -57.800373      0.60876563   
   1923000   538.72759     -57.211971     -57.838695     -57.838695      0.62672405   
   1924000   539.84048     -57.064383     -57.692402     -57.692402      0.62801873   
   1925000   528.14733     -56.64049      -57.254906     -57.254906      0.6144156    
   1926000   512.24706     -57.128424     -57.724343     -57.724343      0.59591816   
   1927000   509.24914     -57.059996     -57.652427     -57.652427      0.59243056   
   1928000   518.86351     -56.841987     -57.445602     -57.445602      0.60361535   
   1929000   525.01832     -56.945993     -57.556768     -57.556768      0.6107755    
   1930000   524.42439     -56.573257     -57.183341     -57.183341      0.61008455   
   1931000   519.32979     -57.076335     -57.680493     -57.680493      0.60415779   
   1932000   485.28418     -56.481132     -57.045683     -57.045683      0.56455113   
   1933000   478.67333     -56.921348     -57.478208     -57.478208      0.55686045   
   1934000   502.41438     -56.879918     -57.464397     -57.464397      0.5844794    
   1935000   487.69239     -57.052063     -57.619416     -57.619416      0.5673527    
   1936000   502.00452     -57.29465      -57.878653     -57.878653      0.5840026    
   1937000   480.82114     -56.667471     -57.22683      -57.22683       0.5593591    
   1938000   471.6794      -57.09652      -57.645245     -57.645245      0.54872413   
   1939000   465.14892     -57.015516     -57.556643     -57.556643      0.54112695   
   1940000   491.47444     -57.160719     -57.732472     -57.732472      0.57175252   
   1941000   475.87513     -57.026193     -57.579798     -57.579798      0.55360519   
   1942000   487.77554     -56.957897     -57.525346     -57.525346      0.56744943   
   1943000   475.58675     -57.084151     -57.637421     -57.637421      0.55326971   
   1944000   459.38322     -56.790301     -57.32472      -57.32472       0.53441947   
   1945000   482.6562      -57.058386     -57.61988      -57.61988       0.56149389   
   1946000   449.44935     -56.94942      -57.472283     -57.472283      0.522863     
   1947000   451.24032     -57.069937     -57.594883     -57.594883      0.5249465    
   1948000   447.79324     -56.758795     -57.279732     -57.279732      0.52093638   
   1949000   459.40281     -57.273087     -57.807529     -57.807529      0.53444226   
   1950000   449.70997     -57.202113     -57.725279     -57.725279      0.52316619   
   1951000   457.92551     -56.984323     -57.517047     -57.517047      0.53272366   
   1952000   433.41926     -57.059798     -57.564012     -57.564012      0.50421453   
   1953000   444.11456     -57.333891     -57.850548     -57.850548      0.51665681   
   1954000   474.0241      -56.7683       -57.319752     -57.319752      0.55145182   
   1955000   454.22446     -57.080365     -57.608783     -57.608783      0.52841808   
   1956000   423.3315      -57.023199     -57.515678     -57.515678      0.49247902   
   1957000   437.4896      -57.056875     -57.565825     -57.565825      0.50894972   
   1958000   430.45562     -56.923112     -57.423879     -57.423879      0.5007668    
   1959000   408.07027     -57.24721      -57.721935     -57.721935      0.474725     
   1960000   435.30918     -57.204199     -57.710612     -57.710612      0.50641315   
   1961000   415.98593     -57.046436     -57.530369     -57.530369      0.48393361   
   1962000   409.53284     -57.302659     -57.779086     -57.779086      0.47642647   
   1963000   421.8456      -56.962872     -57.453622     -57.453622      0.49075041   
   1964000   408.34462     -57.358954     -57.833998     -57.833998      0.47504416   
   1965000   402.0713      -56.961709     -57.429455     -57.429455      0.46774615   
   1966000   401.85448     -57.368606     -57.8361       -57.8361        0.46749391   
   1967000   407.23025     -57.383895     -57.857642     -57.857642      0.47374777   
   1968000   396.26392     -57.245714     -57.706704     -57.706704      0.46099019   
   1969000   398.80662     -57.096113     -57.560061     -57.560061      0.46394821   
   1970000   378.52704     -57.322558     -57.762914     -57.762914      0.44035613   
   1971000   388.67333     -57.367557     -57.819716     -57.819716      0.45215974   
   1972000   382.84945     -57.235787     -57.681172     -57.681172      0.44538458   
   1973000   378.56849     -57.282044     -57.722449     -57.722449      0.44040436   
   1974000   378.03672     -56.962211     -57.401996     -57.401996      0.43978573   
   1975000   377.1739      -57.436588     -57.875369     -57.875369      0.43878198   
   1976000   376.61427     -56.598153     -57.036283     -57.036283      0.43813094   
   1977000   362.56615     -57.294363     -57.716151     -57.716151      0.42178817   
   1978000   345.07646     -57.13455      -57.535991     -57.535991      0.4014417    
   1979000   354.83062     -57.373378     -57.786167     -57.786167      0.41278912   
   1980000   369.40139     -57.307863     -57.737603     -57.737603      0.42973989   
   1981000   358.01692     -57.313251     -57.729747     -57.729747      0.41649587   
   1982000   370.18207     -57.368804     -57.799452     -57.799452      0.43064809   
   1983000   353.66988     -57.091285     -57.502724     -57.502724      0.41143879   
   1984000   358.9968      -57.322118     -57.739754     -57.739754      0.4176358    
   1985000   348.09528     -57.119426     -57.524379     -57.524379      0.40495362   
   1986000   342.66964     -57.463395     -57.862036     -57.862036      0.39864174   
   1987000   326.7539      -57.01507      -57.395196     -57.395196      0.38012631   
   1988000   331.05125     -57.523943     -57.909068     -57.909068      0.38512559   
   1989000   336.88112     -57.201326     -57.593234     -57.593234      0.39190772   
   1990000   328.08411     -57.53476      -57.916434     -57.916434      0.38167379   
   1991000   354.31628     -57.183946     -57.596137     -57.596137      0.41219076   
   1992000   310.06448     -57.28961      -57.650321     -57.650321      0.36071081   
   1993000   320.47178     -57.478508     -57.851326     -57.851326      0.37281806   
   1994000   312.73404     -57.493619     -57.857435     -57.857435      0.36381643   
   1995000   322.28529     -57.435919     -57.810847     -57.810847      0.37492779   
   1996000   309.60075     -57.170558     -57.53073      -57.53073       0.36017134   
   1997000   302.96057     -57.578353     -57.930799     -57.930799      0.35244655   
   1998000   319.84387     -57.270854     -57.642941     -57.642941      0.37208758   
   1999000   305.76208     -57.516426     -57.872132     -57.872132      0.35570566   
   2000000   296.24794     -57.127961     -57.472598     -57.472598      0.34463746   
   2001000   293.88791     -57.488882     -57.830774     -57.830774      0.34189194   
   2002000   294.93814     -57.490406     -57.83352      -57.83352       0.34311372   
   2003000   280.83118     -57.412828     -57.73953      -57.73953       0.32670251   
   2004000   296.70057     -57.373703     -57.718867     -57.718867      0.34516403   
   2005000   281.95407     -57.603447     -57.931456     -57.931456      0.32800882   
   2006000   288.0669      -57.491357     -57.826477     -57.826477      0.33512012   
   2007000   282.34897     -57.443001     -57.771469     -57.771469      0.32846822   
   2008000   276.34301     -57.638243     -57.959724     -57.959724      0.32148123   
   2009000   259.0271      -57.116196     -57.417533     -57.417533      0.30133692   
   2010000   276.02958     -57.590934     -57.912051     -57.912051      0.32111662   
   2011000   260.68352     -57.474612     -57.777876     -57.777876      0.30326391   
   2012000   259.4795      -57.621736     -57.9236       -57.9236        0.30186322   
   2013000   260.87338     -57.505922     -57.809407     -57.809407      0.30348478   
   2014000   253.17207     -57.58249      -57.877016     -57.877016      0.29452552   
   2015000   244.31129     -57.282482     -57.566699     -57.566699      0.28421742   
   2016000   251.40073     -57.712148     -58.004612     -58.004612      0.29246486   
   2017000   259.16391     -57.397547     -57.699044     -57.699044      0.30149608   
   2018000   251.12646     -57.399345     -57.691491     -57.691491      0.29214578   
   2019000   245.76429     -57.541325     -57.827233     -57.827233      0.28590775   
   2020000   237.31642     -57.565941     -57.842021     -57.842021      0.27608      
   2021000   239.57264     -57.573427     -57.852132     -57.852132      0.27870475   
   2022000   218.86116     -57.34531      -57.59992      -57.59992       0.25461022   
   2023000   230.08381     -57.768877     -58.036543     -58.036543      0.267666     
   2024000   233.16771     -57.49168      -57.762933     -57.762933      0.27125362   
   2025000   221.61952     -57.642374     -57.900193     -57.900193      0.25781914   
   2026000   221.83094     -57.67859      -57.936655     -57.936655      0.25806509   
   2027000   217.05542     -57.71462      -57.96713      -57.96713       0.25250953   
   2028000   222.54088     -57.53699      -57.795881     -57.795881      0.258891     
   2029000   202.05575     -57.530317     -57.765377     -57.765377      0.2350598    
   2030000   210.77906     -57.718015     -57.963223     -57.963223      0.24520799   
   2031000   214.43204     -57.466642     -57.716099     -57.716099      0.24945765   
   2032000   199.84113     -57.567727     -57.80021      -57.80021       0.23248344   
   2033000   197.66715     -57.687564     -57.917519     -57.917519      0.22995436   
   2034000   195.29405     -57.72597      -57.953163     -57.953163      0.22719363   
   2035000   193.82971     -57.699928     -57.925418     -57.925418      0.2254901    
   2036000   196.67092     -57.555184     -57.783979     -57.783979      0.22879541   
   2037000   185.16018     -57.802191     -58.017595     -58.017595      0.21540448   
   2038000   189.43804     -57.73853      -57.958911     -57.958911      0.22038109   
   2039000   188.994       -57.692761     -57.912625     -57.912625      0.21986452   
   2040000   181.81369     -57.80254      -58.014051     -58.014051      0.21151138   
   2041000   175.46034     -57.617466     -57.821586     -57.821586      0.20412026   
   2042000   175.09627     -57.783664     -57.987361     -57.987361      0.20369673   
   2043000   174.57037     -57.66925      -57.872335     -57.872335      0.20308492   
   2044000   165.50446     -57.674448     -57.866987     -57.866987      0.19253818   
   2045000   166.37327     -57.65482      -57.848368     -57.848368      0.19354889   
   2046000   164.80979     -57.717734     -57.909464     -57.909464      0.19173003   
   2047000   157.90029     -57.788909     -57.972601     -57.972601      0.18369192   
   2048000   160.51165     -57.653125     -57.839855     -57.839855      0.18672983   
   2049000   149.88021     -57.840332     -58.014694     -58.014694      0.17436184   
   2050000   143.69549     -57.598028     -57.765195     -57.765195      0.16716689   
   2051000   144.51901     -57.893554     -58.061679     -58.061679      0.16812494   
   2052000   145.3099      -57.847083     -58.016128     -58.016128      0.16904501   
   2053000   142.05282     -57.699497     -57.864753     -57.864753      0.16525592   
   2054000   137.80718     -57.864853     -58.02517      -58.02517       0.16031678   
   2055000   135.93588     -57.879912     -58.038052     -58.038052      0.15813982   
   2056000   136.41601     -57.805068     -57.963767     -57.963767      0.15869838   
   2057000   131.02176     -57.792952     -57.945375     -57.945375      0.15242303   
   2058000   124.1948      -57.822975     -57.967456     -57.967456      0.14448094   
   2059000   124.76646     -57.794156     -57.939302     -57.939302      0.14514597   
   2060000   122.29541     -57.805832     -57.948104     -57.948104      0.1422713    
   2061000   113.94813     -57.858232     -57.990792     -57.990792      0.13256057   
   2062000   111.54619     -57.804204     -57.93397      -57.93397       0.12976629   
   2063000   110.02435     -57.938996     -58.066992     -58.066992      0.12799587   
   2064000   107.94879     -57.930907     -58.056488     -58.056488      0.12558129   
   2065000   110.15478     -57.754762     -57.88291      -57.88291       0.1281476    
   2066000   101.27109     -57.866028     -57.983841     -57.983841      0.11781284   
   2067000   99.313807     -57.964288     -58.079823     -58.079823      0.11553585   
   2068000   98.495994     -57.840334     -57.954919     -57.954919      0.11458446   
   2069000   93.122807     -57.878816     -57.98715      -57.98715       0.10833361   
   2070000   86.932099     -57.893643     -57.994774     -57.994774      0.1011317    
   2071000   85.83582      -57.906218     -58.006074     -58.006074      0.099856355  
   2072000   85.762237     -57.93995      -58.03972      -58.03972       0.099770752  
   2073000   80.237877     -57.937562     -58.030906     -58.030906      0.093344037  
   2074000   75.911066     -57.929158     -58.017469     -58.017469      0.088310478  
   2075000   74.59008      -57.996591     -58.083365     -58.083365      0.086773721  
   2076000   72.156806     -57.981061     -58.065004     -58.065004      0.083942993  
   2077000   69.724908     -57.931612     -58.012726     -58.012726      0.081113866  
   2078000   66.175899     -57.973275     -58.050261     -58.050261      0.076985157  
   2079000   63.827435     -58.027594     -58.101848     -58.101848      0.074253092  
   2080000   63.996589     -57.938954     -58.013404     -58.013404      0.074449875  
   2081000   58.136339     -57.98691      -58.054543     -58.054543      0.067632405  
   2082000   53.995123     -58.01168      -58.074495     -58.074495      0.062814757  
   2083000   51.254652     -57.977221     -58.036848     -58.036848      0.059626654  
   2084000   48.906093     -58.019962     -58.076857     -58.076857      0.056894478  
   2085000   44.785362     -58.017553     -58.069654     -58.069654      0.052100661  
   2086000   41.2662       -58.001014     -58.049021     -58.049021      0.048006675  
   2087000   39.332197     -58.060936     -58.106693     -58.106693      0.045756769  
   2088000   36.234187     -58.051704     -58.093857     -58.093857      0.042152726  
   2089000   33.291159     -58.049323     -58.088052     -58.088052      0.038728981  
   2090000   29.98682      -58.06461      -58.099495     -58.099495      0.034884907  
   2091000   26.990966     -58.085554     -58.116954     -58.116954      0.031399706  
   2092000   24.453397     -58.071978     -58.100426     -58.100426      0.028447646  
   2093000   21.44549      -58.08586      -58.110808     -58.110808      0.024948424  
   2094000   18.552708     -58.092774     -58.114357     -58.114357      0.021583131  
   2095000   15.496164     -58.085016     -58.103043     -58.103043      0.018027327  
   2096000   12.475273     -58.107485     -58.121998     -58.121998      0.014513     
   2097000   9.3461321     -58.110466     -58.121338     -58.121338      0.010872742  
   2098000   6.1405144     -58.109096     -58.11624      -58.11624       0.007143514  
   2099000   3.246486      -58.124367     -58.128144     -58.128144      0.0037767712 
   2100000   0.22192068    -58.130244     -58.130502     -58.130502      0.0002581695 
   2100062   0.038217394   -58.13055      -58.130594     -58.130594      4.4459872e-05
Loop time of 4.92742 on 1 procs for 1000000 steps with 10 atoms

Performance: 1753.452 ns/day, 0.014 hours/ns, 202945.789 timesteps/s, 2.029 Matom-step/s
104.1% CPU use with 1 MPI tasks x 1 OpenMP threads

MPI task timing breakdown:
Section |  min time  |  avg time  |  max time  |%varavg| %total
---------------------------------------------------------------
Pair    | 3.6112     | 3.6112     | 3.6112     |   0.0 | 73.29
Neigh   | 0.059491   | 0.059491   | 0.059491   |   0.0 |  1.21
Comm    | 0.088272   | 0.088272   | 0.088272   |   0.0 |  1.79
Output  | 0.13592    | 0.13592    | 0.13592    |   0.0 |  2.76
Modify  | 0.85781    | 0.85781    | 0.85781    |   0.0 | 17.41
Other   |            | 0.1747     |            |       |  3.55

Nlocal:             10 ave          10 max          10 min
Histogram: 1 0 0 0 0 0 0 0 0 0
Nghost:              0 ave           0 max           0 min
Histogram: 1 0 0 0 0 0 0 0 0 0
Neighs:              0 ave           0 max           0 min
Histogram: 1 0 0 0 0 0 0 0 0 0
FullNghs:           90 ave          90 max          90 min
Histogram: 1 0 0 0 0 0 0 0 0 0

Total # of neighbors = 90
Ave neighs/atom = 9
Neighbor list builds = 16197
Dangerous builds = 0
write_restart 	C100/endconf/endconf*3.restart
System init for write_restart ...

Total wall time: 0:00:10
