LAMMPS (7 Feb 2024 - Update 1)
OMP_NUM_THREADS environment is not set. Defaulting to 1 thread. (src/comm.cpp:98)
  using 1 OpenMP thread(s) per MPI task
#============Initialization=================
units 			metal
atom_style 		atomic
boundary 		p p p

############################################
#              CLI Variables               #
############################################
variable 		seed index 200093          #
variable 		N index 6                  #
variable 		iter index 1000000         #
variable 		iterther index 100000      #
variable 		iexport index 1000         #
variable 		tempchauf index 3000       #
variable 		Tdamp index 0.001          #
variable 		timestep index 0.0001      #
variable 		box_size index 40		   #
############################################
############################################

#=========Simulation box definition=========
lattice 		sc 1.0
Lattice spacing in x,y,z = 1 1 1
region 			bigbox block 0 ${box_size} 0 ${box_size} 0 ${box_size}
region 			bigbox block 0 40 0 ${box_size} 0 ${box_size}
region 			bigbox block 0 40 0 40 0 ${box_size}
region 			bigbox block 0 40 0 40 0 40
create_box 		1 bigbox
Created orthogonal box = (0 0 0) to (40 40 40)
  1 by 1 by 1 MPI processor grid

#==================Atoms====================
region 			safezone block 6 9 6 9 6 9 units box
create_atoms 	1 random ${N} ${seed} safezone
create_atoms 	1 random 8 ${seed} safezone
create_atoms 	1 random 8 200093 safezone
Created 8 atoms
  using lattice units in orthogonal box = (0 0 0) to (40 40 40)
  create_atoms CPU = 0.000 seconds
mass 			* 12.01



#==========Velocity initialization==========
velocity 		all create 0.0000001 1563967 rot yes dist gaussian

#======Pair style for atom interactions=============
pair_style 		airebo 1.8
pair_coeff 		* * CH.airebo C
Reading airebo potential file CH.airebo with DATE: 2011-10-25

#==============Neighbor selection===================
neighbor 		2.0 bin
neigh_modify 	every 1 delay 0 check yes


#=====================Timestep======================
timestep 		${timestep}
timestep 		0.0001

#===============Define dump command=================
dump 			1 all cfg 100000 ./dump/dump.tensile_*.cfg mass type xs ys zs vx vy vz id

#========System temperature printing info===========
thermo_style 	custom step temp etotal epair pe ke
thermo 			${iexport}
thermo 			1000



#====================CRC Cycle======================

#=============Condensation et chauffe===============
fix 			1 all nve
fix 			2 all temp/berendsen 0.0 ${tempchauf} ${Tdamp}
fix 			2 all temp/berendsen 0.0 3000 ${Tdamp}
fix 			2 all temp/berendsen 0.0 3000 0.001
fix             3 all momentum 1 linear 1 1 1 angular rescale

run 			${iter}
run 			1000000
Neighbor list info ...
  update: every = 1 steps, delay = 0 steps, check = yes
  max neighbors/atom: 2000, page size: 100000
  master list distance cutoff = 9.816371
  ghost atom cutoff = 9.816371
  binsize = 4.9081855, bins = 9 9 9
  1 neighbor lists, perpetual/occasional/extra = 1 0 0
  (1) pair airebo, perpetual
      attributes: full, newton on, ghost
      pair build: full/bin/ghost
      stencil: full/ghost/bin/3d
      bin: standard
Per MPI rank memory allocation (min/avg/max) = 3.886 | 3.886 | 3.886 Mbytes
   Step          Temp          TotEng         E_pair         PotEng         KinEng    
         0   1e-07          1296.7082      1296.7082      1296.7082      9.0482101e-11
      1000   28.313515     -31.56684      -31.592459     -31.592459      0.025618664  
      2000   13.485802     -33.401234     -33.413436     -33.413436      0.012202237  
      3000   12.006178     -33.843258     -33.854121     -33.854121      0.010863442  
      4000   14.523394     -34.160178     -34.173319     -34.173319      0.013141072  
      5000   14.261287     -34.211408     -34.224312     -34.224312      0.012903912  
      6000   17.629142     -34.211256     -34.227207     -34.227207      0.015951218  
      7000   21.556875     -34.200346     -34.219851     -34.219851      0.019505113  
      8000   107.08291     -38.630337     -38.727228     -38.727228      0.096890866  
      9000   31.816086     -39.946002     -39.97479      -39.97479       0.028787863  
     10000   32.121039     -40.281073     -40.310137     -40.310137      0.029063791  
     11000   32.104638     -40.30754      -40.336589     -40.336589      0.029048951  
     12000   35.478388     -40.332332     -40.364434     -40.364434      0.032101591  
     13000   38.488718     -40.328232     -40.363057     -40.363057      0.034825401  
     14000   41.6072       -40.30009      -40.337737     -40.337737      0.037647069  
     15000   44.576651     -40.286861     -40.327195     -40.327195      0.04033389   
     16000   45.197887     -40.270297     -40.311193     -40.311193      0.040895998  
     17000   49.715029     -40.295186     -40.34017      -40.34017       0.044983203  
     18000   52.72715      -40.299334     -40.347042     -40.347042      0.047708633  
     19000   55.776871     -40.291092     -40.341561     -40.341561      0.050468085  
     20000   61.035915     -40.27593      -40.331157     -40.331157      0.055226579  
     21000   65.717991     -40.274174     -40.333637     -40.333637      0.05946302   
     22000   65.506756     -40.304576     -40.363847     -40.363847      0.059271889  
     23000   67.746183     -40.280683     -40.341981     -40.341981      0.06129817   
     24000   69.327017     -40.259676     -40.322405     -40.322405      0.062728542  
     25000   74.325869     -40.286778     -40.35403      -40.35403       0.067251608  
     26000   76.787202     -40.269153     -40.338632     -40.338632      0.069478674  
     27000   83.339645     -40.281209     -40.356616     -40.356616      0.075407462  
     28000   83.505756     -40.288557     -40.364115     -40.364115      0.075557763  
     29000   88.928615     -40.240241     -40.320705     -40.320705      0.08046448   
     30000   89.861018     -40.27237      -40.353678     -40.353678      0.081308138  
     31000   93.258291     -40.268057     -40.352439     -40.352439      0.084382061  
     32000   94.866643     -40.261007     -40.346845     -40.346845      0.085837332  
     33000   97.769228     -40.269122     -40.357586     -40.357586      0.088463652  
     34000   101.03016     -40.252041     -40.343455     -40.343455      0.091414208  
     35000   103.69115     -40.271554     -40.365376     -40.365376      0.093821936  
     36000   105.97728     -40.243324     -40.339214     -40.339214      0.095890474  
     37000   112.8092      -40.270571     -40.372643     -40.372643      0.10207214   
     38000   110.05105     -40.233662     -40.333238     -40.333238      0.099576502  
     39000   118.3916      -40.262154     -40.369277     -40.369277      0.1071232    
     40000   118.44934     -40.247789     -40.354964     -40.354964      0.10717545   
     41000   122.91637     -40.262124     -40.373341     -40.373341      0.11121732   
     42000   128.36625     -40.223252     -40.3394       -40.3394        0.11614848   
     43000   128.77443     -40.245705     -40.362222     -40.362222      0.11651781   
     44000   132.42285     -40.233835     -40.353654     -40.353654      0.11981898   
     45000   134.27598     -40.23088      -40.352376     -40.352376      0.12149573   
     46000   138.91569     -40.232241     -40.357935     -40.357935      0.12569384   
     47000   140.11358     -40.225732     -40.35251      -40.35251       0.12677771   
     48000   144.4563      -40.244897     -40.375605     -40.375605      0.1307071    
     49000   145.05173     -40.202299     -40.333545     -40.333545      0.13124586   
     50000   149.4386      -40.234526     -40.369742     -40.369742      0.13521519   
     51000   150.99396     -40.221957     -40.35858      -40.35858       0.13662251   
     52000   157.22742     -40.199425     -40.341688     -40.341688      0.14226267   
     53000   157.01199     -40.226832     -40.3689       -40.3689        0.14206775   
     54000   164.24364     -40.201368     -40.349979     -40.349979      0.1486111    
     55000   160.88272     -40.2001       -40.34567      -40.34567       0.14557007   
     56000   172.03067     -40.212173     -40.36783      -40.36783       0.15565697   
     57000   169.83093     -40.189479     -40.343145     -40.343145      0.1536666    
     58000   173.15218     -40.207244     -40.363916     -40.363916      0.15667174   
     59000   174.63774     -40.197249     -40.355265     -40.355265      0.1580159    
     60000   182.23307     -40.183143     -40.348032     -40.348032      0.16488831   
     61000   183.24296     -40.199379     -40.365181     -40.365181      0.16580208   
     62000   186.08986     -40.16489      -40.333268     -40.333268      0.16837801   
     63000   186.09212     -40.189648     -40.358028     -40.358028      0.16838006   
     64000   190.69025     -40.193334     -40.365874     -40.365874      0.17254055   
     65000   195.20362     -40.169897     -40.346522     -40.346522      0.17662434   
     66000   198.64023     -40.174013     -40.353746     -40.353746      0.17973385   
     67000   204.14764     -40.178081     -40.362798     -40.362798      0.18471708   
     68000   200.62875     -40.157416     -40.338949     -40.338949      0.18153311   
     69000   205.89166     -40.149068     -40.335363     -40.335363      0.1862951    
     70000   209.90638     -40.168081     -40.358009     -40.358009      0.18992771   
     71000   211.72213     -40.155051     -40.346622     -40.346622      0.19157064   
     72000   216.52982     -40.137548     -40.333468     -40.333468      0.19592074   
     73000   215.86841     -40.147463     -40.342785     -40.342785      0.19532227   
     74000   224.74919     -40.152805     -40.356162     -40.356162      0.20335779   
     75000   228.7965      -40.123055     -40.330075     -40.330075      0.20701988   
     76000   226.26596     -40.129662     -40.334392     -40.334392      0.2047302    
     77000   229.71804     -40.151197     -40.359051     -40.359051      0.20785371   
     78000   235.86819     -40.132895     -40.346313     -40.346313      0.21341849   
     79000   240.30493     -40.094281     -40.311714     -40.311714      0.21743295   
     80000   234.90472     -40.142009     -40.354556     -40.354556      0.21254673   
     81000   244.778       -40.142318     -40.363799     -40.363799      0.22148028   
     82000   248.64125     -40.115175     -40.34015      -40.34015       0.22497583   
     83000   246.7261      -40.11517      -40.338413     -40.338413      0.22324296   
     84000   252.12154     -40.123942     -40.352067     -40.352067      0.22812486   
     85000   255.44841     -40.133772     -40.364907     -40.364907      0.23113509   
     86000   256.20742     -40.123968     -40.35579      -40.35579       0.23182186   
     87000   263.76203     -40.073035     -40.311693     -40.311693      0.23865743   
     88000   264.93612     -40.104801     -40.344521     -40.344521      0.23971977   
     89000   268.34709     -40.115273     -40.35808      -40.35808       0.24280608   
     90000   269.89584     -40.081114     -40.325321     -40.325321      0.24420743   
     91000   278.00166     -40.077551     -40.329093     -40.329093      0.25154174   
     92000   278.21582     -40.079404     -40.331139     -40.331139      0.25173552   
     93000   281.40138     -40.073577     -40.328195     -40.328195      0.25461788   
     94000   282.07833     -40.087718     -40.342949     -40.342949      0.2552304    
     95000   283.70481     -40.074724     -40.331427     -40.331427      0.25670207   
     96000   289.02014     -40.077673     -40.339185     -40.339185      0.2615115    
     97000   287.86124     -40.037845     -40.298308     -40.298308      0.2604629    
     98000   298.16273     -40.072036     -40.34182      -40.34182       0.2697839    
     99000   292.33662     -40.067125     -40.331637     -40.331637      0.26451232   
    100000   298.65049     -40.08401      -40.354235     -40.354235      0.27022524   
    101000   300.75931     -40.071252     -40.343385     -40.343385      0.27213334   
    102000   304.69155     -40.050806     -40.326497     -40.326497      0.27569132   
    103000   309.47941     -40.037461     -40.317485     -40.317485      0.28002347   
    104000   308.83356     -40.055571     -40.33501      -40.33501       0.27943909   
    105000   312.52108     -40.069535     -40.352311     -40.352311      0.28277564   
    106000   320.82122     -40.063166     -40.353452     -40.353452      0.29028578   
    107000   323.47038     -40.058646     -40.351329     -40.351329      0.29268279   
    108000   324.94587     -40.049894     -40.343912     -40.343912      0.29401785   
    109000   329.14622     -40.011172     -40.308991     -40.308991      0.29781841   
    110000   329.26982     -40.035553     -40.333483     -40.333483      0.29793025   
    111000   331.15998     -40.032143     -40.331784     -40.331784      0.29964051   
    112000   337.06283     -40.038134     -40.343115     -40.343115      0.30498153   
    113000   339.67013     -40.047805     -40.355146     -40.355146      0.30734067   
    114000   340.89773     -40.051168     -40.359619     -40.359619      0.30845143   
    115000   346.42611     -40.054318     -40.367772     -40.367772      0.31345363   
    116000   349.22962     -40.02827      -40.34426      -40.34426       0.31599029   
    117000   349.97218     -40.038093     -40.354755     -40.354755      0.31666218   
    118000   356.04638     -40.018891     -40.341049     -40.341049      0.32215824   
    119000   358.37062     -40.029494     -40.353755     -40.353755      0.32426127   
    120000   355.90475     -39.990649     -40.312679     -40.312679      0.3220301    
    121000   363.95403     -40.023721     -40.353034     -40.353034      0.32931326   
    122000   364.3177      -39.98972      -40.319363     -40.319363      0.32964231   
    123000   368.52247     -40.005549     -40.338996     -40.338996      0.33344687   
    124000   373.6572      -40.014494     -40.352587     -40.352587      0.33809289   
    125000   372.69474     -40.014604     -40.351826     -40.351826      0.33722204   
    126000   373.26827     -39.991637     -40.329377     -40.329377      0.33774097   
    127000   385.6003      -40.000483     -40.349382     -40.349382      0.34889925   
    128000   380.353       -40.008057     -40.352208     -40.352208      0.34415139   
    129000   387.93427     -40.009885     -40.360896     -40.360896      0.35101108   
    130000   386.20907     -40.010785     -40.360235     -40.360235      0.34945008   
    131000   392.34627     -39.989506     -40.344509     -40.344509      0.35500315   
    132000   396.65635     -39.989454     -40.348357     -40.348357      0.358903     
    133000   399.66732     -40.001342     -40.36297      -40.36297       0.36162739   
    134000   403.65475     -40.006555     -40.371791     -40.371791      0.3652353    
    135000   402.6829      -39.986944     -40.3513       -40.3513        0.36435595   
    136000   404.75253     -39.998463     -40.364692     -40.364692      0.36622859   
    137000   413.08571     -39.983981     -40.357749     -40.357749      0.37376863   
    138000   413.21951     -40.000352     -40.374241     -40.374241      0.3738897    
    139000   419.97504     -39.97493      -40.354933     -40.354933      0.38000224   
    140000   422.02327     -39.976282     -40.358138     -40.358138      0.38185552   
    141000   424.34073     -39.967062     -40.351015     -40.351015      0.38395241   
    142000   423.61026     -39.961005     -40.344297     -40.344297      0.38329146   
    143000   432.30375     -39.953001     -40.344158     -40.344158      0.39115751   
    144000   427.74388     -39.963149     -40.350181     -40.350181      0.38703165   
    145000   437.86685     -39.951413     -40.347604     -40.347604      0.39619113   
    146000   437.20107     -39.968675     -40.364264     -40.364264      0.39558872   
    147000   441.98734     -39.952741     -40.35266      -40.35266       0.39991943   
    148000   439.28714     -39.942909     -40.340385     -40.340385      0.39747624   
    149000   446.20263     -39.928641     -40.332375     -40.332375      0.40373352   
    150000   456.70541     -39.918322     -40.331558     -40.331558      0.41323665   
    151000   453.68716     -39.911543     -40.322048     -40.322048      0.41050567   
    152000   460.86152     -39.915461     -40.332458     -40.332458      0.41699719   
    153000   458.60529     -39.917992     -40.332948     -40.332948      0.4149557    
    154000   461.94746     -39.878716     -40.296696     -40.296696      0.41797977   
    155000   468.86388     -39.88673      -40.310968     -40.310968      0.42423789   
    156000   467.13097     -39.882069     -40.304739     -40.304739      0.42266992   
    157000   469.52993     -39.867819     -40.29266      -40.29266       0.42484055   
    158000   478.0602      -39.872387     -40.304946     -40.304946      0.43255891   
    159000   484.84714     -39.8556       -40.2943       -40.2943        0.43869988   
    160000   481.29845     -39.87647      -40.311959     -40.311959      0.43548896   
    161000   484.41743     -39.891374     -40.329685     -40.329685      0.43831107   
    162000   483.6012      -39.866449     -40.304022     -40.304022      0.43757253   
    163000   494.58339     -39.881405     -40.328915     -40.328915      0.44750945   
    164000   495.89595     -39.868395     -40.317092     -40.317092      0.44869707   
    165000   493.95452     -39.895533     -40.342473     -40.342473      0.44694043   
    166000   499.35028     -39.87084      -40.322662     -40.322662      0.45182263   
    167000   500.12522     -39.879107     -40.331631     -40.331631      0.45252381   
    168000   503.38475     -39.868697     -40.32417      -40.32417       0.4554731    
    169000   499.16126     -39.813081     -40.264733     -40.264733      0.4516516    
    170000   510.78128     -39.822746     -40.284912     -40.284912      0.46216563   
    171000   503.54795     -39.836051     -40.291672     -40.291672      0.45562076   
    172000   513.57963     -39.820501     -40.285198     -40.285198      0.46469764   
    173000   512.93482     -39.854555     -40.318669     -40.318669      0.46411421   
    174000   522.58533     -39.868174     -40.34102      -40.34102       0.47284619   
    175000   528.7529      -39.855247     -40.333673     -40.333673      0.47842673   
    176000   532.01681     -39.8504       -40.33178      -40.33178       0.48137999   
    177000   529.45716     -39.831746     -40.31081      -40.31081       0.47906396   
    178000   531.84218     -39.79629      -40.277512     -40.277512      0.48122198   
    179000   539.75873     -39.83045      -40.318835     -40.318835      0.48838504   
    180000   536.97765     -39.827554     -40.313423     -40.313423      0.48586866   
    181000   549.71541     -39.832892     -40.330286     -40.330286      0.49739406   
    182000   545.04329     -39.852399     -40.345565     -40.345565      0.49316662   
    183000   552.11073     -39.852907     -40.352468     -40.352468      0.49956139   
    184000   551.5446      -39.846068     -40.345117     -40.345117      0.49904914   
    185000   549.10093     -39.811168     -40.308006     -40.308006      0.49683806   
    186000   560.91719     -39.822101     -40.32963      -40.32963       0.50752966   
    187000   560.13251     -39.816349     -40.323169     -40.323169      0.50681967   
    188000   564.44036     -39.851854     -40.362571     -40.362571      0.5107175    
    189000   568.3506      -39.814788     -40.329044     -40.329044      0.51425557   
    190000   564.91687     -39.808121     -40.319269     -40.319269      0.51114866   
    191000   573.8512      -39.80832      -40.327553     -40.327553      0.51923263   
    192000   578.23822     -39.780565     -40.303767     -40.303767      0.5232021    
    193000   581.87912     -39.813534     -40.340031     -40.340031      0.52649646   
    194000   584.11176     -39.820699     -40.349215     -40.349215      0.5285166    
    195000   586.50697     -39.814575     -40.345259     -40.345259      0.53068383   
    196000   587.121       -39.784149     -40.315389     -40.315389      0.53123942   
    197000   589.07156     -39.792193     -40.325198     -40.325198      0.53300433   
    198000   594.40051     -39.791448     -40.329274     -40.329274      0.53782607   
    199000   596.32668     -39.790648     -40.330217     -40.330217      0.53956891   
    200000   597.98476     -39.788884     -40.329954     -40.329954      0.54106918   
    201000   600.80307     -39.792008     -40.335627     -40.335627      0.54361925   
    202000   608.91965     -39.762425     -40.313388     -40.313388      0.55096329   
    203000   605.62127     -39.798174     -40.346153     -40.346153      0.54797886   
    204000   613.24003     -39.794889     -40.349761     -40.349761      0.55487247   
    205000   613.62665     -39.790365     -40.345588     -40.345588      0.55522229   
    206000   618.33191     -39.741893     -40.301373     -40.301373      0.55947971   
    207000   623.62103     -39.756658     -40.320924     -40.320924      0.56426541   
    208000   623.93802     -39.803807     -40.368359     -40.368359      0.56455224   
    209000   626.01156     -39.740864     -40.307292     -40.307292      0.56642841   
    210000   623.54755     -39.735896     -40.300095     -40.300095      0.56419893   
    211000   632.81352     -39.744944     -40.317527     -40.317527      0.57258297   
    212000   627.98026     -39.733089     -40.301299     -40.301299      0.56820974   
    213000   633.21499     -39.717887     -40.290833     -40.290833      0.57294623   
    214000   632.28373     -39.700474     -40.272578     -40.272578      0.57210361   
    215000   645.78095     -39.682054     -40.26637      -40.26637       0.58431617   
    216000   650.94139     -39.714884     -40.30387      -40.30387       0.58898545   
    217000   655.8044      -39.731496     -40.324881     -40.324881      0.59338561   
    218000   645.7858      -39.739215     -40.323536     -40.323536      0.58432056   
    219000   663.12406     -39.72747      -40.327479     -40.327479      0.60000859   
    220000   661.2002      -39.687396     -40.285664     -40.285664      0.59826784   
    221000   663.10416     -39.737032     -40.337023     -40.337023      0.59999058   
    222000   670.07825     -39.695092     -40.301393     -40.301393      0.60630089   
    223000   665.39544     -39.677428     -40.279492     -40.279492      0.60206378   
    224000   676.26615     -39.677226     -40.289126     -40.289126      0.61189983   
    225000   679.66067     -39.668741     -40.283712     -40.283712      0.61497126   
    226000   674.43876     -39.696716     -40.306963     -40.306963      0.61024636   
    227000   674.30619     -39.600262     -40.210389     -40.210389      0.61012641   
    228000   679.14581     -39.574032     -40.188537     -40.188537      0.6145054    
    229000   692.8576      -39.657574     -40.284486     -40.284486      0.62691212   
    230000   685.90777     -39.638429     -40.259053     -40.259053      0.62062376   
    231000   692.02417     -39.699246     -40.325404     -40.325404      0.62615801   
    232000   694.07289     -39.590729     -40.218741     -40.218741      0.62801174   
    233000   696.10924     -39.511295     -40.141149     -40.141149      0.62985427   
    234000   702.64365     -39.623429     -40.259195     -40.259195      0.63576674   
    235000   699.03968     -39.623485     -40.255991     -40.255991      0.63250579   
    236000   700.26409     -39.538607     -40.172221     -40.172221      0.63361366   
    237000   705.43522     -39.463829     -40.102122     -40.102122      0.63829262   
    238000   713.29506     -39.559706     -40.20511      -40.20511       0.64540436   
    239000   717.8076      -39.587045     -40.236532     -40.236532      0.6494874    
    240000   703.5164      -39.636908     -40.273465     -40.273465      0.63655642   
    241000   703.28651     -39.537527     -40.173875     -40.173875      0.63634841   
    242000   729.92983     -39.577516     -40.237972     -40.237972      0.66045585   
    243000   739.10283     -39.587064     -40.255819     -40.255819      0.66875578   
    244000   730.75195     -39.545515     -40.206715     -40.206715      0.66119972   
    245000   714.72853     -39.492446     -40.139147     -40.139147      0.64670139   
    246000   733.04199     -39.46183      -40.125102     -40.125102      0.6632718    
    247000   745.18973     -39.533859     -40.208123     -40.208123      0.67426333   
    248000   756.28553     -39.479063     -40.163366     -40.163366      0.68430304   
    249000   752.21236     -39.604015     -40.284633     -40.284633      0.68061755   
    250000   758.8217      -39.546773     -40.233371     -40.233371      0.68659782   
    251000   737.93239     -39.462312     -40.130008     -40.130008      0.66769673   
    252000   757.44377     -39.506408     -40.191759     -40.191759      0.68535104   
    253000   746.84182     -39.554787     -40.230546     -40.230546      0.67575817   
    254000   772.59575     -39.487277     -40.186338     -40.186338      0.69906087   
    255000   750.12294     -39.482808     -40.161535     -40.161535      0.678727     
    256000   774.97047     -39.539005     -40.240215     -40.240215      0.70120957   
    257000   787.77583     -39.536058     -40.248854     -40.248854      0.71279612   
    258000   771.70388     -39.512452     -40.210706     -40.210706      0.69825388   
    259000   791.51765     -39.497019     -40.213201     -40.213201      0.71618181   
    260000   790.94541     -39.515593     -40.231257     -40.231257      0.71566403   
    261000   776.37118     -39.502069     -40.204545     -40.204545      0.70247696   
    262000   789.35032     -39.535367     -40.249588     -40.249588      0.71422075   
    263000   791.39228     -39.522342     -40.23841      -40.23841       0.71606837   
    264000   774.31006     -39.529875     -40.230487     -40.230487      0.70061202   
    265000   808.16478     -39.478596     -40.209841     -40.209841      0.73124447   
    266000   812.41863     -39.466813     -40.201907     -40.201907      0.73509345   
    267000   812           -39.440626     -40.175341     -40.175341      0.73471466   
    268000   816.11851     -39.448899     -40.18734      -40.18734       0.73844118   
    269000   804.14866     -39.507549     -40.23516      -40.23516       0.72761061   
    270000   812.32386     -39.522295     -40.257303     -40.257303      0.7350077    
    271000   812.46113     -39.498197     -40.233329     -40.233329      0.7351319    
    272000   813.57528     -39.516514     -40.252654     -40.252654      0.73614001   
    273000   816.00724     -39.47238      -40.21072      -40.21072       0.7383405    
    274000   818.80551     -39.469041     -40.209913     -40.209913      0.74087243   
    275000   831.82872     -39.350506     -40.103162     -40.103162      0.7526561    
    276000   837.03078     -39.41793      -40.175293     -40.175293      0.75736304   
    277000   838.77253     -39.530984     -40.289923     -40.289923      0.75893901   
    278000   825.74373     -39.433686     -40.180836     -40.180836      0.74715028   
    279000   859.81008     -39.457127     -40.235101     -40.235101      0.77797423   
    280000   813.30911     -39.484279     -40.220178     -40.220178      0.73589917   
    281000   834.1973      -39.463951     -40.218751     -40.218751      0.75479925   
    282000   849.96616     -39.394068     -40.163136     -40.163136      0.76906725   
    283000   849.3357      -39.443107     -40.211604     -40.211604      0.76849679   
    284000   851.63359     -39.430307     -40.200883     -40.200883      0.77057597   
    285000   859.25497     -39.509734     -40.287206     -40.287206      0.77747195   
    286000   863.96746     -39.385911     -40.167647     -40.167647      0.78173591   
    287000   849.12047     -39.43276      -40.201062     -40.201062      0.76830205   
    288000   852.46725     -39.359263     -40.130593     -40.130593      0.77133028   
    289000   860.03573     -39.473039     -40.251217     -40.251217      0.7781784    
    290000   879.50361     -39.41005      -40.205843     -40.205843      0.79579335   
    291000   880.82102     -39.46377      -40.260756     -40.260756      0.79698537   
    292000   874.94861     -39.420099     -40.211771     -40.211771      0.79167189   
    293000   896.88059     -39.39478      -40.206296     -40.206296      0.81151641   
    294000   879.59336     -39.362269     -40.158143     -40.158143      0.79587456   
    295000   884.99431     -39.47069      -40.271451     -40.271451      0.80076145   
    296000   891.24826     -39.359402     -40.165822     -40.165822      0.80642015   
    297000   873.56517     -39.354153     -40.144573     -40.144573      0.79042013   
    298000   892.6661      -39.455134     -40.262837     -40.262837      0.80770305   
    299000   907.51134     -39.372632     -40.193767     -40.193767      0.82113534   
    300000   885.6458      -39.385188     -40.186539     -40.186539      0.80135094   
    301000   903.02003     -39.457123     -40.274194     -40.274194      0.8170715    
    302000   910.38929     -39.223518     -40.047257     -40.047257      0.82373937   
    303000   905.45707     -39.310301     -40.129578     -40.129578      0.81927658   
    304000   929.62752     -39.315792     -40.156938     -40.156938      0.84114652   
    305000   920.72627     -39.365126     -40.198218     -40.198218      0.83309248   
    306000   914.82817     -39.426584     -40.254339     -40.254339      0.82775576   
    307000   941.18429     -39.337671     -40.189274     -40.189274      0.85160332   
    308000   921.05384     -39.486344     -40.319733     -40.319733      0.83338887   
    309000   928.7142      -39.406178     -40.246499     -40.246499      0.84032013   
    310000   931.3394      -39.429328     -40.272024     -40.272024      0.84269546   
    311000   925.80671     -39.356637     -40.194327     -40.194327      0.83768937   
    312000   937.16061     -39.389855     -40.237818     -40.237818      0.84796262   
    313000   932.07488     -39.43115      -40.274511     -40.274511      0.84336094   
    314000   943.04632     -39.426405     -40.279693     -40.279693      0.85328812   
    315000   938.10821     -39.449723     -40.298543     -40.298543      0.84882002   
    316000   944.88927     -39.426638     -40.281594     -40.281594      0.85495567   
    317000   944.53212     -39.370631     -40.225263     -40.225263      0.85463251   
    318000   957.48916     -39.429096     -40.295453     -40.295453      0.86635631   
    319000   966.36223     -39.396964     -40.271348     -40.271348      0.87438486   
    320000   952.99638     -39.336571     -40.198862     -40.198862      0.86229115   
    321000   970.53448     -39.408624     -40.286784     -40.286784      0.87816      
    322000   975.32332     -39.415712     -40.298205     -40.298205      0.88249304   
    323000   969.28755     -39.399808     -40.27684      -40.27684       0.87703175   
    324000   973.44216     -39.37777      -40.258561     -40.258561      0.88079092   
    325000   978.24901     -39.427779     -40.312919     -40.312919      0.88514026   
    326000   973.24232     -39.340222     -40.220832     -40.220832      0.8806101    
    327000   980.20128     -39.418342     -40.305249     -40.305249      0.88690671   
    328000   977.7177      -39.375756     -40.260416     -40.260416      0.88465953   
    329000   986.11121     -39.336571     -40.228826     -40.228826      0.89225415   
    330000   994.94651     -39.328182     -40.22843      -40.22843       0.90024851   
    331000   993.51192     -39.398558     -40.297508     -40.297508      0.89895046   
    332000   995.23286     -39.354639     -40.255147     -40.255147      0.90050761   
    333000   1007.2004     -39.346553     -40.257889     -40.257889      0.91133613   
    334000   996.71254     -39.364783     -40.26663      -40.26663       0.90184645   
    335000   995.36692     -39.357937     -40.258566     -40.258566      0.90062891   
    336000   1012.4352     -39.295908     -40.211981     -40.211981      0.9160726    
    337000   1006.4171     -39.327579     -40.238206     -40.238206      0.91062735   
    338000   1011.1785     -39.313826     -40.228761     -40.228761      0.91493553   
    339000   1020.7123     -39.312757     -40.236319     -40.236319      0.92356198   
    340000   1029.9426     -39.369212     -40.301126     -40.301126      0.93191367   
    341000   1023.5751     -39.338213     -40.264365     -40.264365      0.9261523    
    342000   1030.0281     -39.302621     -40.234612     -40.234612      0.93199107   
    343000   1023.4956     -39.267588     -40.193668     -40.193668      0.92608033   
    344000   1047.8539     -39.236649     -40.184769     -40.184769      0.94812021   
    345000   1026.315      -39.298062     -40.226693     -40.226693      0.92863135   
    346000   1034.427      -39.266506     -40.202477     -40.202477      0.93597127   
    347000   1048.0344     -39.311579     -40.259863     -40.259863      0.94828357   
    348000   1028.1657     -39.287338     -40.217644     -40.217644      0.9303059    
    349000   1050.7379     -39.217282     -40.168012     -40.168012      0.95072974   
    350000   1051.0391     -39.267083     -40.218085     -40.218085      0.95100228   
    351000   1034.5427     -39.153609     -40.089685     -40.089685      0.93607595   
    352000   1063.1941     -39.268897     -40.230898     -40.230898      0.9620004    
    353000   1056.9352     -39.256396     -40.212733     -40.212733      0.95633722   
    354000   1055.6771     -39.339306     -40.294505     -40.294505      0.95519885   
    355000   1068.8934     -39.209215     -40.176372     -40.176372      0.96715722   
    356000   1070.6602     -39.195929     -40.164685     -40.164685      0.96875589   
    357000   1072.2884     -39.190908     -40.161137     -40.161137      0.97022908   
    358000   1062.4265     -39.190525     -40.151831     -40.151831      0.9613058    
    359000   1061.2055     -39.236953     -40.197154     -40.197154      0.96020106   
    360000   1075.1468     -39.172465     -40.145281     -40.145281      0.97281542   
    361000   1075.7305     -39.262731     -40.236074     -40.236074      0.9733436    
    362000   1098.7816     -39.160537     -40.154738     -40.154738      0.99420067   
    363000   1086.2795     -39.265083     -40.247972     -40.247972      0.98288848   
    364000   1069.6575     -39.190667     -40.158516     -40.158516      0.96784862   
    365000   1095.2614     -39.203102     -40.194117     -40.194117      0.99101553   
    366000   1095.8888     -39.137987     -40.129571     -40.129571      0.99158324   
    367000   1076.6525     -39.193115     -40.167293     -40.167293      0.97417779   
    368000   1080.7068     -39.201416     -40.179262     -40.179262      0.97784618   
    369000   1107.3801     -39.117466     -40.119447     -40.119447      1.0019808    
    370000   1133.5421     -39.179993     -40.205646     -40.205646      1.0256527    
    371000   1082.6931     -39.158876     -40.138519     -40.138519      0.97964349   
    372000   1129.9578     -39.135715     -40.158125     -40.158125      1.0224096    
    373000   1113.1871     -39.190696     -40.197931     -40.197931      1.007235     
    374000   1131.7767     -39.155186     -40.179242     -40.179242      1.0240553    
    375000   1130.3344     -39.224474     -40.247225     -40.247225      1.0227503    
    376000   1116.1368     -39.190133     -40.200037     -40.200037      1.0099041    
    377000   1130.4453     -39.227534     -40.250384     -40.250384      1.0228507    
    378000   1104.7755     -39.08267      -40.082294     -40.082294      0.99962413   
    379000   1136.7548     -39.069597     -40.098157     -40.098157      1.0285597    
    380000   1146.7111     -39.14429      -40.181858     -40.181858      1.0375683    
    381000   1139.0733     -39.176853     -40.207511     -40.207511      1.0306575    
    382000   1149.677      -39.148258     -40.18851      -40.18851       1.0402519    
    383000   1153.7055     -39.125778     -40.169675     -40.169675      1.043897     
    384000   1133.5004     -38.989443     -40.015058     -40.015058      1.025615     
    385000   1149.3552     -39.162323     -40.202284     -40.202284      1.0399607    
    386000   1150.7749     -39.178216     -40.219462     -40.219462      1.0412453    
    387000   1156.4534     -39.110682     -40.157065     -40.157065      1.0463833    
    388000   1157.5472     -39.195851     -40.243225     -40.243225      1.047373     
    389000   1160.9284     -39.057831     -40.108264     -40.108264      1.0504324    
    390000   1191.0035     -39.059989     -40.137634     -40.137634      1.077645     
    391000   1165.2419     -39.093963     -40.148298     -40.148298      1.0543354    
    392000   1156.5182     -39.181234     -40.227676     -40.227676      1.046442     
    393000   1190.2842     -39.04059      -40.117585     -40.117585      1.0769941    
    394000   1157.359      -39.087147     -40.13435      -40.13435       1.0472028    
    395000   1220.6427     -39.102295     -40.206758     -40.206758      1.1044631    
    396000   1168.3973     -39.048407     -40.105597     -40.105597      1.0571905    
    397000   1195.6437     -39.126439     -40.208283     -40.208283      1.0818435    
    398000   1196.8344     -39.088518     -40.171439     -40.171439      1.082921     
    399000   1186.4481     -39.198908     -40.272431     -40.272431      1.0735232    
    400000   1193.0364     -39.034493     -40.113978     -40.113978      1.0794844    
    401000   1229.9795     -38.987117     -40.100028     -40.100028      1.1129113    
    402000   1206.2382     -39.159411     -40.250841     -40.250841      1.0914297    
    403000   1228.2365     -38.895747     -40.007081     -40.007081      1.1113342    
    404000   1195.7315     -39.098153     -40.180076     -40.180076      1.081923     
    405000   1207.9558     -39.080155     -40.173139     -40.173139      1.0929838    
    406000   1224.0522     -39.059316     -40.166864     -40.166864      1.1075481    
    407000   1221.4961     -39.135191     -40.240427     -40.240427      1.1052353    
    408000   1241.7624     -38.958        -40.081572     -40.081572      1.1235727    
    409000   1231.012      -39.08172      -40.195566     -40.195566      1.1138455    
    410000   1218.8986     -39.041976     -40.144861     -40.144861      1.1028851    
    411000   1229.3876     -39.083992     -40.196367     -40.196367      1.1123757    
    412000   1241.5317     -39.092034     -40.215398     -40.215398      1.123364     
    413000   1247.7229     -38.856701     -39.985667     -39.985667      1.1289659    
    414000   1268.2577     -38.977725     -40.125272     -40.125272      1.1475462    
    415000   1239.6237     -39.109077     -40.230715     -40.230715      1.1216376    
    416000   1207.8625     -39.058465     -40.151365     -40.151365      1.0928994    
    417000   1257.2632     -38.919286     -40.056884     -40.056884      1.1375982    
    418000   1249.7761     -39.002509     -40.133333     -40.133333      1.1308237    
    419000   1237.9585     -39.014674     -40.134805     -40.134805      1.1201309    
    420000   1280.0176     -39.012233     -40.170419     -40.170419      1.1581868    
    421000   1262.2448     -39.08175      -40.223855     -40.223855      1.1421056    
    422000   1258.1996     -39.028175     -40.166621     -40.166621      1.1384454    
    423000   1264.8292     -39.028467     -40.172911     -40.172911      1.1444441    
    424000   1281.1027     -38.93568      -40.094849     -40.094849      1.1591686    
    425000   1275.1706     -38.994249     -40.14805      -40.14805       1.1538011    
    426000   1304.8106     -38.787629     -39.968249     -39.968249      1.18062      
    427000   1254.2161     -39.00159      -40.136431     -40.136431      1.1348411    
    428000   1306.6355     -38.94302      -40.125291     -40.125291      1.1822713    
    429000   1268.0491     -38.972817     -40.120174     -40.120174      1.1473575    
    430000   1274.2722     -38.958425     -40.111413     -40.111413      1.1529882    
    431000   1308.298      -38.934833     -40.118609     -40.118609      1.1837756    
    432000   1280.2947     -38.893754     -40.052192     -40.052192      1.1584375    
    433000   1304.8697     -38.818593     -39.999266     -39.999266      1.1806735    
    434000   1296.9384     -38.908504     -40.082001     -40.082001      1.1734971    
    435000   1297.715      -38.980015     -40.154215     -40.154215      1.1741998    
    436000   1299.56       -38.883945     -40.059814     -40.059814      1.1758692    
    437000   1326.0152     -38.91384      -40.113647     -40.113647      1.1998064    
    438000   1314.7675     -39.006636     -40.196265     -40.196265      1.1896293    
    439000   1337.5452     -38.87299      -40.083229     -40.083229      1.210239     
    440000   1349.4827     -39.04141      -40.262451     -40.262451      1.2210403    
    441000   1321.7577     -38.943305     -40.13926      -40.13926       1.1959541    
    442000   1324.2857     -38.92907      -40.127311     -40.127311      1.1982415    
    443000   1317.461      -39.03238      -40.224446     -40.224446      1.1920664    
    444000   1313.4599     -38.969238     -40.157684     -40.157684      1.1884461    
    445000   1328.6317     -38.952789     -40.154963     -40.154963      1.2021739    
    446000   1332.9653     -38.931163     -40.137258     -40.137258      1.206095     
    447000   1329.9065     -38.921651     -40.124979     -40.124979      1.2033274    
    448000   1344.1783     -38.899089     -40.11533      -40.11533       1.2162407    
    449000   1338.2773     -39.044114     -40.255016     -40.255016      1.2109014    
    450000   1349.8269     -38.941742     -40.163093     -40.163093      1.2213517    
    451000   1357.0767     -38.990567     -40.218479     -40.218479      1.2279115    
    452000   1339.9379     -39.081232     -40.293636     -40.293636      1.212404     
    453000   1371.2627     -38.822239     -40.062987     -40.062987      1.2407473    
    454000   1358.0575     -39.02041      -40.249209     -40.249209      1.2287989    
    455000   1359.5365     -38.972129     -40.202266     -40.202266      1.2301372    
    456000   1376.1195     -38.974544     -40.219686     -40.219686      1.2451418    
    457000   1375.4705     -38.955859     -40.200413     -40.200413      1.2445546    
    458000   1364.1427     -38.856094     -40.090399     -40.090399      1.234305     
    459000   1347.8548     -38.95145      -40.171017     -40.171017      1.2195674    
    460000   1368.2431     -38.759828     -39.997843     -39.997843      1.2380151    
    461000   1366.3369     -38.838726     -40.075016     -40.075016      1.2362903    
    462000   1403.2515     -38.771878     -40.041569     -40.041569      1.2696915    
    463000   1393.9502     -38.837516     -40.098792     -40.098792      1.2612754    
    464000   1405.928      -38.879689     -40.151802     -40.151802      1.2721132    
    465000   1356.0119     -38.591554     -39.818502     -39.818502      1.2269481    
    466000   1384.5133     -38.80249      -40.055226     -40.055226      1.2527367    
    467000   1404.143      -38.870053     -40.140552     -40.140552      1.2704981    
    468000   1408.6288     -38.839417     -40.113974     -40.113974      1.274557     
    469000   1400.3646     -38.823636     -40.090715     -40.090715      1.2670793    
    470000   1418.027      -38.721965     -40.005026     -40.005026      1.2830606    
    471000   1401.6197     -38.945076     -40.213291     -40.213291      1.268215     
    472000   1409.7616     -38.902411     -40.177993     -40.177993      1.2755819    
    473000   1419.1858     -38.894924     -40.179033     -40.179033      1.2841092    
    474000   1417.8326     -38.924382     -40.207267     -40.207267      1.2828848    
    475000   1425.8689     -38.809382     -40.099538     -40.099538      1.2901561    
    476000   1422.8615     -38.964802     -40.252237     -40.252237      1.287435     
    477000   1416.4271     -38.885976     -40.167589     -40.167589      1.281613     
    478000   1427.2779     -38.758661     -40.050092     -40.050092      1.2914311    
    479000   1446.1493     -38.874464     -40.18297      -40.18297       1.3085063    
    480000   1439.377      -38.64404      -39.946418     -39.946418      1.3023785    
    481000   1450.4816     -38.934934     -40.24736      -40.24736       1.3124262    
    482000   1443.8512     -38.794478     -40.100905     -40.100905      1.3064269    
    483000   1442.5017     -38.786496     -40.091702     -40.091702      1.3052059    
    484000   1464.343      -38.915317     -40.240285     -40.240285      1.3249683    
    485000   1448.3234     -38.732935     -40.043408     -40.043408      1.3104735    
    486000   1463.7489     -38.89643      -40.220861     -40.220861      1.3244307    
    487000   1452.0471     -38.746778     -40.060621     -40.060621      1.3138427    
    488000   1481.8608     -38.808375     -40.149194     -40.149194      1.3408188    
    489000   1468.3968     -38.900523     -40.229159     -40.229159      1.3286363    
    490000   1480.2034     -38.787458     -40.126778     -40.126778      1.3393191    
    491000   1472.4833     -38.829399     -40.161732     -40.161732      1.3323338    
    492000   1487.8433     -38.699325     -40.045556     -40.045556      1.3462319    
    493000   1475.2092     -38.651667     -39.986468     -39.986468      1.3348003    
    494000   1480.0042     -38.754085     -40.093224     -40.093224      1.3391389    
    495000   1490.4759     -38.74018      -40.088794     -40.088794      1.3486139    
    496000   1495.1614     -38.553569     -39.906423     -39.906423      1.3528535    
    497000   1506.8887     -38.752072     -40.115536     -40.115536      1.3634645    
    498000   1498.0478     -38.348361     -39.703826     -39.703826      1.3554651    
    499000   1490.0398     -38.573313     -39.921533     -39.921533      1.3482193    
    500000   1534.7064     -38.731389     -40.120024     -40.120024      1.3886346    
    501000   1468.1495     -38.681924     -40.010337     -40.010337      1.3284125    
    502000   1492.935      -38.490352     -39.84119      -39.84119       1.3508389    
    503000   1525.8857     -38.508482     -39.889136     -39.889136      1.3806535    
    504000   1520.7419     -38.6223       -39.998299     -39.998299      1.3759992    
    505000   1482.8004     -38.735356     -40.077025     -40.077025      1.3416689    
    506000   1536.5356     -38.485372     -39.875661     -39.875661      1.3902897    
    507000   1537.9616     -38.806074     -40.197654     -40.197654      1.39158      
    508000   1514.2595     -38.589607     -39.959741     -39.959741      1.3701338    
    509000   1503.7513     -38.754007     -40.114633     -40.114633      1.3606258    
    510000   1532.6447     -38.690353     -40.077122     -40.077122      1.3867691    
    511000   1508.9058     -38.774398     -40.139688     -40.139688      1.3652897    
    512000   1560.9965     -38.695278     -40.1077       -40.1077        1.4124224    
    513000   1568.557      -38.78277      -40.202033     -40.202033      1.4192633    
    514000   1500.7042     -38.686146     -40.044015     -40.044015      1.3578687    
    515000   1543.4275     -38.736503     -40.133028     -40.133028      1.3965256    
    516000   1574.9584     -38.639309     -40.064364     -40.064364      1.4250554    
    517000   1537.2072     -38.734571     -40.125468     -40.125468      1.3908974    
    518000   1571.1102     -38.812137     -40.233711     -40.233711      1.4215735    
    519000   1542.1266     -38.691741     -40.08709      -40.08709       1.3953485    
    520000   1578.8725     -38.595458     -40.024055     -40.024055      1.428597     
    521000   1567.6142     -38.569963     -39.988374     -39.988374      1.4184102    
    522000   1572.5484     -38.773777     -40.196652     -40.196652      1.4228749    
    523000   1578.3072     -38.625507     -40.053592     -40.053592      1.4280855    
    524000   1586.945      -38.531296     -39.967197     -39.967197      1.4359012    
    525000   1591.4263     -38.732461     -40.172417     -40.172417      1.4399559    
    526000   1566.1259     -38.657275     -40.074339     -40.074339      1.4170636    
    527000   1581.1337     -38.670795     -40.101438     -40.101438      1.430643     
    528000   1585.302      -38.714898     -40.149313     -40.149313      1.4344145    
    529000   1632.3391     -38.738941     -40.215916     -40.215916      1.4769747    
    530000   1563.1412     -38.713325     -40.127688     -40.127688      1.414363     
    531000   1601.7095     -38.540611     -39.989871     -39.989871      1.4492604    
    532000   1606.0447     -38.68742      -40.140603     -40.140603      1.453183     
    533000   1593.5232     -38.571329     -40.013182     -40.013182      1.4418532    
    534000   1595.6517     -38.650624     -40.094404     -40.094404      1.4437792    
    535000   1616.216      -38.515769     -39.978155     -39.978155      1.4623862    
    536000   1601.4257     -38.68222      -40.131223     -40.131223      1.4490037    
    537000   1594.4675     -38.680446     -40.123154     -40.123154      1.4427077    
    538000   1628.0026     -38.694451     -40.167502     -40.167502      1.473051     
    539000   1620.6393     -38.74897      -40.215358     -40.215358      1.4663885    
    540000   1619.0337     -38.721123     -40.186059     -40.186059      1.4649358    
    541000   1643.2599     -38.623679     -40.110535     -40.110535      1.4868561    
    542000   1613.957      -38.826303     -40.286645     -40.286645      1.4603422    
    543000   1645.9447     -38.754418     -40.243703     -40.243703      1.4892853    
    544000   1643.1255     -38.668676     -40.155411     -40.155411      1.4867345    
    545000   1613.6026     -38.772236     -40.232257     -40.232257      1.4600215    
    546000   1644.9224     -38.636421     -40.124781     -40.124781      1.4883603    
    547000   1628.8186     -38.689155     -40.162944     -40.162944      1.4737893    
    548000   1636.2654     -38.586184     -40.066712     -40.066712      1.4805273    
    549000   1637.6337     -38.532218     -40.013984     -40.013984      1.4817654    
    550000   1632.8757     -38.601683     -40.079143     -40.079143      1.4774602    
    551000   1650.2337     -38.656022     -40.149188     -40.149188      1.4931662    
    552000   1655.874      -38.562743     -40.061013     -40.061013      1.4982696    
    553000   1647.8932     -38.709636     -40.200685     -40.200685      1.4910484    
    554000   1670.7659     -38.676097     -40.187841     -40.187841      1.5117441    
    555000   1672.6864     -38.644153     -40.157635     -40.157635      1.5134818    
    556000   1693.5792     -38.656477     -40.188863     -40.188863      1.5323861    
    557000   1676.3188     -38.652935     -40.169704     -40.169704      1.5167685    
    558000   1668.9306     -38.551451     -40.061534     -40.061534      1.5100834    
    559000   1677.07       -38.590717     -40.108165     -40.108165      1.5174481    
    560000   1688.2798     -38.489606     -40.017197     -40.017197      1.527591     
    561000   1677.4883     -38.428583     -39.94641      -39.94641       1.5178267    
    562000   1699.1338     -38.621656     -40.159068     -40.159068      1.537412     
    563000   1710.6776     -38.479772     -40.027629     -40.027629      1.5478571    
    564000   1705.0012     -38.62031      -40.163031     -40.163031      1.5427209    
    565000   1715.6798     -38.58102      -40.133403     -40.133403      1.5523832    
    566000   1690.1498     -38.688642     -40.217925     -40.217925      1.5292831    
    567000   1731.298      -38.481333     -40.047848     -40.047848      1.5665148    
    568000   1708.8928     -38.61962      -40.165862     -40.165862      1.5462421    
    569000   1713.5697     -38.599374     -40.149848     -40.149848      1.5504738    
    570000   1707.4193     -38.541504     -40.086413     -40.086413      1.5449089    
    571000   1745.4422     -38.399813     -39.979125     -39.979125      1.5793128    
    572000   1694.4479     -38.602162     -40.135334     -40.135334      1.5331721    
    573000   1727.1879     -38.605921     -40.168717     -40.168717      1.5627959    
    574000   1733.4034     -38.415104     -39.983524     -39.983524      1.5684198    
    575000   1721.9112     -38.560194     -40.118216     -40.118216      1.5580214    
    576000   1731.5606     -38.478328     -40.04508      -40.04508       1.5667524    
    577000   1717.5498     -38.626863     -40.180938     -40.180938      1.5540751    
    578000   1715.1169     -38.603155     -40.155028     -40.155028      1.5518738    
    579000   1731.0943     -38.365912     -39.932243     -39.932243      1.5663305    
    580000   1761.838      -38.399681     -39.993829     -39.993829      1.5941481    
    581000   1744.3948     -38.486176     -40.064541     -40.064541      1.5783651    
    582000   1753.5726     -38.406821     -39.99349      -39.99349       1.5866693    
    583000   1736.7847     -38.451141     -40.02262      -40.02262       1.5714793    
    584000   1756.1569     -38.272389     -39.861397     -39.861397      1.5890077    
    585000   1729.638      -38.401407     -39.96642      -39.96642       1.5650128    
    586000   1789.7543     -38.501848     -40.121255     -40.121255      1.6194073    
    587000   1745.4079     -38.216852     -39.796134     -39.796134      1.5792817    
    588000   1757.5853     -38.528857     -40.119157     -40.119157      1.5903001    
    589000   1778.4001     -38.196343     -39.805476     -39.805476      1.6091338    
    590000   1759.8771     -38.53639      -40.128763     -40.128763      1.5923737    
    591000   1753.7573     -38.510163     -40.096999     -40.096999      1.5868364    
    592000   1737.9798     -38.37191      -39.94447      -39.94447       1.5725607    
    593000   1778.2325     -38.500381     -40.109363     -40.109363      1.6089821    
    594000   1795.2905     -38.423369     -40.047786     -40.047786      1.6244166    
    595000   1768.0596     -38.520013     -40.11979      -40.11979       1.5997775    
    596000   1746.0691     -38.535998     -40.115878     -40.115878      1.57988      
    597000   1792.4708     -38.498641     -40.120506     -40.120506      1.6218653    
    598000   1806.2063     -38.467036     -40.10133      -40.10133       1.6342934    
    599000   1791.2826     -38.563613     -40.184404     -40.184404      1.6207902    
    600000   1788.2961     -38.403277     -40.021364     -40.021364      1.6180879    
    601000   1822.7613     -38.422205     -40.071478     -40.071478      1.6492727    
    602000   1823.701      -38.573472     -40.223595     -40.223595      1.650123     
    603000   1812.2512     -38.468121     -40.107884     -40.107884      1.639763     
    604000   1786.7338     -38.470525     -40.0872       -40.0872        1.6166743    
    605000   1814.8962     -38.507075     -40.149231     -40.149231      1.6421562    
    606000   1841.5893     -38.467887     -40.134196     -40.134196      1.6663087    
    607000   1828.7285     -38.448763     -40.103435     -40.103435      1.654672     
    608000   1820.6216     -38.414229     -40.061566     -40.061566      1.6473367    
    609000   1839.7819     -38.463204     -40.127877     -40.127877      1.6646734    
    610000   1834.8089     -38.364487     -40.02466      -40.02466       1.6601736    
    611000   1816.2722     -38.399835     -40.043236     -40.043236      1.6434013    
    612000   1841.7007     -38.416261     -40.082671     -40.082671      1.6664095    
    613000   1825.1496     -38.355951     -40.007385     -40.007385      1.6514338    
    614000   1827.9483     -38.483534     -40.1375       -40.1375        1.6539661    
    615000   1846.393      -38.334115     -40.00477      -40.00477       1.6706552    
    616000   1842.1659     -38.093797     -39.760627     -39.760627      1.6668304    
    617000   1821.5428     -38.479004     -40.127175     -40.127175      1.6481702    
    618000   1842.8495     -38.262478     -39.929927     -39.929927      1.6674489    
    619000   1847.3037     -38.386691     -40.058171     -40.058171      1.6714792    
    620000   1870.1202     -38.386052     -40.078177     -40.078177      1.6921241    
    621000   1829.0425     -38.00326      -39.658216     -39.658216      1.6549561    
    622000   1854.7217     -38.17548      -39.853672     -39.853672      1.6781912    
    623000   1871.0364     -38.170866     -39.863819     -39.863819      1.692953     
    624000   1888.8301     -38.190301     -39.899355     -39.899355      1.7090532    
    625000   1869.0653     -37.93266      -39.623829     -39.623829      1.6911696    
    626000   1859.5622     -38.310031     -39.992602     -39.992602      1.682571     
    627000   1896.7972     -37.858011     -39.574273     -39.574273      1.7162619    
    628000   1890.2992     -38.054041     -39.764424     -39.764424      1.7103825    
    629000   1915.6146     -37.866409     -39.599698     -39.599698      1.7332883    
    630000   1925.477      -37.910933     -39.653145     -39.653145      1.7422121    
    631000   1822.0889     -37.976513     -39.625177     -39.625177      1.6486643    
    632000   1896.2648     -38.269267     -39.985047     -39.985047      1.7157803    
    633000   1876.1996     -38.043522     -39.741147     -39.741147      1.6976248    
    634000   1928.3659     -37.510904     -39.25573      -39.25573       1.744826     
    635000   1899.9265     -38.026373     -39.745467     -39.745467      1.7190935    
    636000   1978.4453     -37.996117     -39.786256     -39.786256      1.7901388    
    637000   1868.4983     -37.763494     -39.454151     -39.454151      1.6906565    
    638000   1864.8851     -38.23743      -39.924817     -39.924817      1.6873872    
    639000   1879.0443     -38.23745      -39.937649     -39.937649      1.7001988    
    640000   1950.789      -37.697456     -39.462571     -39.462571      1.7651149    
    641000   1866.3015     -38.076051     -39.764719     -39.764719      1.6886688    
    642000   1925.5355     -37.884128     -39.626393     -39.626393      1.742265     
    643000   1855.0826     -37.870652     -39.54917      -39.54917       1.6785177    
    644000   1932.0436     -38.069491     -39.817645     -39.817645      1.7481537    
    645000   1948.2961     -37.792735     -39.555594     -39.555594      1.7628593    
    646000   1933.3629     -37.764511     -39.513859     -39.513859      1.7493473    
    647000   1923.1156     -38.114188     -39.854264     -39.854264      1.7400754    
    648000   1966.0934     -38.14258      -39.921543     -39.921543      1.7789626    
    649000   1880.6907     -37.977844     -39.679533     -39.679533      1.7016884    
    650000   1908.9414     -37.684655     -39.411905     -39.411905      1.7272503    
    651000   1888.3475     -38.099066     -39.807683     -39.807683      1.7086165    
    652000   1946.5612     -37.936414     -39.697703     -39.697703      1.7612895    
    653000   1873.2019     -37.441475     -39.136388     -39.136388      1.6949125    
    654000   1977.7612     -37.551743     -39.341263     -39.341263      1.7895199    
    655000   1989.5173     -37.570423     -39.37058      -39.37058       1.8001571    
    656000   1950.7342     -37.958241     -39.723306     -39.723306      1.7650653    
    657000   1978.2276     -37.940454     -39.730396     -39.730396      1.7899419    
    658000   1961.3932     -37.875849     -39.650559     -39.650559      1.7747097    
    659000   1959.8709     -37.997039     -39.770372     -39.770372      1.7733324    
    660000   1983.8763     -37.912536     -39.707589     -39.707589      1.7950529    
    661000   2015.9208     -37.866912     -39.690959     -39.690959      1.8240475    
    662000   2005.0653     -37.898071     -39.712296     -39.712296      1.8142252    
    663000   1986.4105     -37.993218     -39.790564     -39.790564      1.797346     
    664000   1955.0429     -37.246315     -39.015279     -39.015279      1.7689639    
    665000   2043.7286     -37.718074     -39.567283     -39.567283      1.8492086    
    666000   1926.3178     -37.624252     -39.367225     -39.367225      1.7429729    
    667000   1943.2243     -37.466221     -39.224492     -39.224492      1.7582702    
    668000   2007.2206     -37.667702     -39.483878     -39.483878      1.8161754    
    669000   2017.9163     -37.964164     -39.790017     -39.790017      1.8258531    
    670000   2053.5223     -38.086455     -39.944526     -39.944526      1.8580701    
    671000   1990.5509     -38.133587     -39.934679     -39.934679      1.8010923    
    672000   2061.476      -37.995407     -39.860673     -39.860673      1.8652668    
    673000   1944.1068     -38.060415     -39.819484     -39.819484      1.7590687    
    674000   2000.0538     -38.09381      -39.9035       -39.9035        1.8096907    
    675000   2034.12       -37.690531     -39.531046     -39.531046      1.8405146    
    676000   2040.4991     -38.091052     -39.937338     -39.937338      1.8462865    
    677000   2050.8126     -38.021709     -39.877328     -39.877328      1.8556183    
    678000   2042.2594     -38.078712     -39.926591     -39.926591      1.8478792    
    679000   2015.058      -38.072803     -39.89607      -39.89607       1.8232668    
    680000   1979.9624     -37.732828     -39.524339     -39.524339      1.7915116    
    681000   2084.2207     -37.285403     -39.17125      -39.17125       1.8858467    
    682000   2065.7481     -37.909483     -39.778615     -39.778615      1.8691323    
    683000   1978.3043     -37.80697      -39.596981     -39.596981      1.7900113    
    684000   2032.9203     -37.263809     -39.103238     -39.103238      1.839429     
    685000   2036.8075     -37.510893     -39.353839     -39.353839      1.8429463    
    686000   2084.0335     -38.047158     -39.932835     -39.932835      1.8856773    
    687000   2073.8551     -37.801582     -39.678049     -39.678049      1.8764677    
    688000   2068.2308     -37.60118      -39.472559     -39.472559      1.8713787    
    689000   2045.5493     -38.020136     -39.870992     -39.870992      1.850856     
    690000   2058.8147     -37.322849     -39.185708     -39.185708      1.8628588    
    691000   2097.8006     -37.555179     -39.453313     -39.453313      1.8981341    
    692000   2101.4574     -37.822556     -39.723998     -39.723998      1.9014429    
    693000   2148.6116     -37.450493     -39.394602     -39.394602      1.9441089    
    694000   2013.7402     -37.509588     -39.331662     -39.331662      1.8220745    
    695000   2019.2671     -37.378815     -39.20589      -39.20589       1.8270753    
    696000   2099.2688     -37.835986     -39.735449     -39.735449      1.8994625    
    697000   2159.7628     -37.715373     -39.669572     -39.669572      1.9541988    
    698000   2052.267      -37.837103     -39.694038     -39.694038      1.8569343    
    699000   2108.2495     -37.811919     -39.719507     -39.719507      1.9075884    
    700000   2119.5508     -38.013184     -39.930998     -39.930998      1.9178141    
    701000   2084.9928     -37.871848     -39.758393     -39.758393      1.8865453    
    702000   2144.9209     -37.898004     -39.838773     -39.838773      1.9407695    
    703000   2093.8036     -38.186921     -40.081439     -40.081439      1.8945175    
    704000   2117.4829     -37.493251     -39.409194     -39.409194      1.915943     
    705000   2121.5227     -37.814456     -39.734055     -39.734055      1.9195983    
    706000   2108.7282     -37.725377     -39.633398     -39.633398      1.9080216    
    707000   2151.8842     -37.070511     -39.017581     -39.017581      1.94707      
    708000   2106.4779     -37.594978     -39.500963     -39.500963      1.9059855    
    709000   2133.5842     -37.45768      -39.388192     -39.388192      1.9305118    
    710000   2091.062      -37.581315     -39.473352     -39.473352      1.8920369    
    711000   2172.0125     -37.197959     -39.163241     -39.163241      1.9652825    
    712000   2166.2001     -37.811012     -39.771035     -39.771035      1.9600234    
    713000   2108.5491     -37.061788     -38.969648     -38.969648      1.9078595    
    714000   2176.5722     -38.054365     -40.023773     -40.023773      1.9694082    
    715000   2247.196      -37.308531     -39.341841     -39.341841      2.0333101    
    716000   2157.2259     -37.485375     -39.437279     -39.437279      1.9519033    
    717000   2148.6763     -37.683239     -39.627407     -39.627407      1.9441675    
    718000   2156.6178     -37.824779     -39.776133     -39.776133      1.9513531    
    719000   2202.0671     -37.777955     -39.770432     -39.770432      1.9924766    
    720000   2228.2964     -37.324595     -39.340804     -39.340804      2.0162094    
    721000   2126.9107     -37.848994     -39.773467     -39.773467      1.9244735    
    722000   2161.3859     -37.253929     -39.209597     -39.209597      1.9556674    
    723000   2287.2829     -37.401789     -39.471371     -39.471371      2.0695817    
    724000   2090.6809     -37.313646     -39.205338     -39.205338      1.891692     
    725000   2165.2865     -37.68486      -39.644056     -39.644056      1.9591967    
    726000   2154.3189     -37.975386     -39.924659     -39.924659      1.949273     
    727000   2183.6353     -37.588324     -39.564123     -39.564123      1.9757991    
    728000   2169.9074     -37.00647      -38.969848     -38.969848      1.9633778    
    729000   2163.5789     -37.428099     -39.385751     -39.385751      1.9576516    
    730000   2146.7785     -37.543033     -39.485484     -39.485484      1.9424503    
    731000   2235.7672     -36.958086     -38.981055     -38.981055      2.0229691    
    732000   2159.659      -37.941136     -39.895241     -39.895241      1.9541048    
    733000   2296.8573     -37.898519     -39.976763     -39.976763      2.0782447    
    734000   2260.3512     -37.699688     -39.744901     -39.744901      2.0452133    
    735000   2262.4955     -36.983742     -39.030896     -39.030896      2.0471535    
    736000   2124.9217     -37.357326     -39.28         -39.28          1.9226739    
    737000   2139.7919     -37.573983     -39.510112     -39.510112      1.9361287    
    738000   2300.7823     -36.936936     -39.018733     -39.018733      2.0817962    
    739000   2216.8299     -37.497126     -39.502961     -39.502961      2.0058343    
    740000   2195.4197     -37.235191     -39.221653     -39.221653      1.9864619    
    741000   2252.8498     -37.2687       -39.307126     -39.307126      2.0384258    
    742000   2291.8237     -36.697128     -38.770818     -38.770818      2.0736903    
    743000   2263.4696     -36.697124     -38.745159     -38.745159      2.0480348    
    744000   2251.1351     -37.516783     -39.553658     -39.553658      2.0368744    
    745000   2246.6023     -36.736094     -38.768867     -38.768867      2.032773     
    746000   2261.3743     -36.732903     -38.779042     -38.779042      2.046139     
    747000   2318.6372     -37.246732     -39.344684     -39.344684      2.0979516    
    748000   2316.6483     -36.941063     -39.037215     -39.037215      2.0961521    
    749000   2280.1176     -37.241022     -39.304121     -39.304121      2.0630984    
    750000   2268.9903     -37.062104     -39.115134     -39.115134      2.0530301    
    751000   2319.9478     -37.808964     -39.908101     -39.908101      2.0991375    
    752000   2359.3947     -36.854196     -38.989026     -38.989026      2.1348299    
    753000   2215.3487     -37.819138     -39.823632     -39.823632      2.004494     
    754000   2272.702      -37.547993     -39.604382     -39.604382      2.0563885    
    755000   2237.703      -37.510473     -39.535193     -39.535193      2.0247207    
    756000   2282.2648     -37.141725     -39.206766     -39.206766      2.0650412    
    757000   2265.5816     -37.303012     -39.352958     -39.352958      2.0499459    
    758000   2348.9363     -37.2156       -39.340967     -39.340967      2.125367     
    759000   2328.0104     -37.851611     -39.958044     -39.958044      2.1064328    
    760000   2241.569      -37.358162     -39.386381     -39.386381      2.0282187    
    761000   2343.0743     -37.376307     -39.49637      -39.49637       2.1200629    
    762000   2236.8113     -37.654442     -39.678356     -39.678356      2.0239139    
    763000   2335.3302     -37.595877     -39.708933     -39.708933      2.1130558    
    764000   2302.3472     -37.756653     -39.839865     -39.839865      2.0832121    
    765000   2376.764      -37.547025     -39.697571     -39.697571      2.150546     
    766000   2277.1842     -37.803934     -39.864378     -39.864378      2.0604441    
    767000   2303.2325     -37.862044     -39.946058     -39.946058      2.0840132    
    768000   2287.4386     -37.68754      -39.757263     -39.757263      2.0697225    
    769000   2330.0259     -37.152404     -39.260661     -39.260661      2.1082564    
    770000   2298.8612     -37.807014     -39.887072     -39.887072      2.080058     
    771000   2275.4471     -37.492959     -39.551831     -39.551831      2.0588724    
    772000   2334.2737     -37.39502      -39.50712      -39.50712       2.1120999    
    773000   2359.8952     -37.511975     -39.647258     -39.647258      2.1352827    
    774000   2288.3807     -37.179126     -39.249701     -39.249701      2.070575     
    775000   2323.5707     -37.042136     -39.144551     -39.144551      2.1024156    
    776000   2335.3812     -37.39564      -39.508742     -39.508742      2.1131019    
    777000   2382.764      -37.764694     -39.920669     -39.920669      2.1559749    
    778000   2328.835      -37.129398     -39.236577     -39.236577      2.1071789    
    779000   2341.6137     -38.001774     -40.120515     -40.120515      2.1187413    
    780000   2347.3629     -37.618139     -39.742083     -39.742083      2.1239433    
    781000   2379.5636     -37.490358     -39.643437     -39.643437      2.1530792    
    782000   2262.9971     -37.248779     -39.296387     -39.296387      2.0476074    
    783000   2408.1453     -37.299687     -39.478627     -39.478627      2.1789405    
    784000   2318.593      -37.196051     -39.293963     -39.293963      2.0979117    
    785000   2329.1228     -37.409882     -39.517321     -39.517321      2.1074392    
    786000   2399.2063     -37.283633     -39.454485     -39.454485      2.1708522    
    787000   2319.3645     -37.675566     -39.774176     -39.774176      2.0986098    
    788000   2360.4425     -37.726301     -39.862079     -39.862079      2.135778     
    789000   2331.4016     -37.590887     -39.700389     -39.700389      2.1095012    
    790000   2292.5473     -37.363854     -39.438199     -39.438199      2.074345     
    791000   2410.279      -37.442221     -39.623092     -39.623092      2.1808711    
    792000   2406.1758     -37.214871     -39.392029     -39.392029      2.1771584    
    793000   2437.0638     -37.600346     -39.805452     -39.805452      2.2051065    
    794000   2379.6776     -37.624127     -39.777309     -39.777309      2.1531823    
    795000   2337.1538     -37.199418     -39.314124     -39.314124      2.1147059    
    796000   2365.1679     -37.706265     -39.846319     -39.846319      2.1400537    
    797000   2434.2967     -37.654798     -39.857401     -39.857401      2.2026028    
    798000   2386.286      -37.508657     -39.667819     -39.667819      2.1591617    
    799000   2348.9616     -37.285098     -39.410487     -39.410487      2.1253899    
    800000   2454.7314     -37.224906     -39.445999     -39.445999      2.2210926    
    801000   2459.191      -37.505064     -39.730192     -39.730192      2.2251277    
    802000   2308.982      -37.66027      -39.749486     -39.749486      2.0892155    
    803000   2412.7545     -37.786056     -39.969167     -39.969167      2.183111     
    804000   2400.1839     -37.380758     -39.552495     -39.552495      2.1717368    
    805000   2383.5412     -37.297358     -39.454036     -39.454036      2.1566781    
    806000   2364.0275     -37.529755     -39.668776     -39.668776      2.1390218    
    807000   2453.4377     -37.773285     -39.993207     -39.993207      2.219922     
    808000   2433.0242     -37.492525     -39.693976     -39.693976      2.2014515    
    809000   2401.9729     -37.517855     -39.69121      -39.69121       2.1733555    
    810000   2407.5704     -37.339238     -39.517658     -39.517658      2.1784203    
    811000   2448.2924     -37.391945     -39.607212     -39.607212      2.2152664    
    812000   2436.0447     -37.674832     -39.879017     -39.879017      2.2041844    
    813000   2491.2265     -37.654026     -39.90814      -39.90814       2.2541141    
    814000   2443.5015     -37.716232     -39.927164     -39.927164      2.2109315    
    815000   2476.8237     -37.315022     -39.556104     -39.556104      2.2410821    
    816000   2391.2288     -37.530307     -39.693941     -39.693941      2.163634     
    817000   2475.4858     -37.535511     -39.775382     -39.775382      2.2398715    
    818000   2435.3583     -37.31451      -39.518074     -39.518074      2.2035633    
    819000   2438.6999     -37.17118      -39.377766     -39.377766      2.2065869    
    820000   2498.8943     -37.120062     -39.381114     -39.381114      2.2610521    
    821000   2463.2318     -37.673783     -39.902567     -39.902567      2.2287839    
    822000   2426.7991     -37.530626     -39.726445     -39.726445      2.1958189    
    823000   2520.9642     -37.443424     -39.724446     -39.724446      2.2810214    
    824000   2527.5321     -37.415302     -39.702266     -39.702266      2.2869642    
    825000   2399.5108     -37.525        -39.696128     -39.696128      2.1711278    
    826000   2548.5036     -36.820127     -39.126067     -39.126067      2.3059396    
    827000   2507.4589     -37.025446     -39.294248     -39.294248      2.2688015    
    828000   2500.1257     -37.400129     -39.662296     -39.662296      2.2621663    
    829000   2551.7468     -36.612377     -38.921251     -38.921251      2.3088742    
    830000   2539.5268     -37.220094     -39.517911     -39.517911      2.2978172    
    831000   2547.7595     -36.94478      -39.250046     -39.250046      2.3052663    
    832000   2468.8537     -37.269834     -39.503705     -39.503705      2.2338708    
    833000   2503.6619     -37.404443     -39.669809     -39.669809      2.2653659    
    834000   2466.5471     -37.285358     -39.517142     -39.517142      2.2317837    
    835000   2535.9774     -36.997698     -39.292304     -39.292304      2.2946056    
    836000   2572.236      -37.695266     -40.022679     -40.022679      2.3274132    
    837000   2506.6188     -37.646239     -39.91428      -39.91428       2.2680414    
    838000   2489.5221     -37.08847      -39.341042     -39.341042      2.252572     
    839000   2542.6636     -36.810868     -39.111524     -39.111524      2.3006554    
    840000   2439.6122     -37.398882     -39.606294     -39.606294      2.2074124    
    841000   2531.5274     -37.432564     -39.723143     -39.723143      2.2905792    
    842000   2536.1823     -37.361387     -39.656178     -39.656178      2.2947911    
    843000   2443.8298     -37.493544     -39.704772     -39.704772      2.2112286    
    844000   2503.9998     -36.980831     -39.246503     -39.246503      2.2656716    
    845000   2543.7628     -37.130623     -39.432273     -39.432273      2.3016501    
    846000   2523.4314     -37.478222     -39.761476     -39.761476      2.2832537    
    847000   2517.8209     -36.884805     -39.162982     -39.162982      2.2781772    
    848000   2413.2486     -36.761364     -38.944922     -38.944922      2.1835581    
    849000   2585.4522     -37.288908     -39.628279     -39.628279      2.3393715    
    850000   2564.3015     -37.096196     -39.41643      -39.41643       2.3202338    
    851000   2586.6961     -36.730925     -39.071422     -39.071422      2.340497     
    852000   2528.7131     -37.364221     -39.652253     -39.652253      2.2880328    
    853000   2534.1799     -37.260254     -39.553234     -39.553234      2.2929792    
    854000   2639.1388     -36.793143     -39.181091     -39.181091      2.3879482    
    855000   2559.8199     -36.291327     -38.607506     -38.607506      2.3161788    
    856000   2573.3759     -37.163245     -39.49169      -39.49169       2.3284446    
    857000   2583.8593     -37.072014     -39.409945     -39.409945      2.3379302    
    858000   2596.7068     -36.949125     -39.298679     -39.298679      2.3495549    
    859000   2634.4153     -36.38625      -38.769924     -38.769924      2.3836743    
    860000   2550.0077     -36.817505     -39.124806     -39.124806      2.3073005    
    861000   2522.8725     -36.913261     -39.196009     -39.196009      2.282748     
    862000   2527.8759     -36.556034     -38.84331      -38.84331       2.2872753    
    863000   2561.2327     -36.277239     -38.594696     -38.594696      2.3174571    
    864000   2605.1939     -37.378496     -39.73573      -39.73573       2.3572342    
    865000   2533.3488     -36.548762     -38.840989     -38.840989      2.2922272    
    866000   2614.1808     -36.276565     -38.64193      -38.64193       2.3653657    
    867000   2542.0136     -36.982047     -39.282115     -39.282115      2.3000673    
    868000   2588.2889     -37.208608     -39.550546     -39.550546      2.3419382    
    869000   2567.9381     -36.915885     -39.239409     -39.239409      2.3235243    
    870000   2618.0686     -36.888584     -39.257467     -39.257467      2.3688835    
    871000   2627.1761     -37.165743     -39.542867     -39.542867      2.3771241    
    872000   2624.2645     -36.877179     -39.251669     -39.251669      2.3744896    
    873000   2657.3257     -37.085219     -39.489623     -39.489623      2.4044041    
    874000   2629.7699     -37.340228     -39.719699     -39.719699      2.3794711    
    875000   2494.9176     -37.438195     -39.695649     -39.695649      2.2574539    
    876000   2671.9714     -37.449461     -39.867117     -39.867117      2.4176559    
    877000   2670.8881     -37.308668     -39.725343     -39.725343      2.4166757    
    878000   2607.4802     -37.241385     -39.600688     -39.600688      2.3593029    
    879000   2607.7589     -36.995502     -39.355057     -39.355057      2.3595551    
    880000   2654.1155     -37.204294     -39.605794     -39.605794      2.4014995    
    881000   2691.3494     -37.334755     -39.769944     -39.769944      2.4351895    
    882000   2534.4945     -37.186102     -39.479366     -39.479366      2.2932639    
    883000   2706.6603     -37.378189     -39.827232     -39.827232      2.4490432    
    884000   2692.1539     -37.066872     -39.50279      -39.50279       2.4359174    
    885000   2668.3379     -36.95616      -39.370529     -39.370529      2.4143682    
    886000   2604.1184     -37.030415     -39.386676     -39.386676      2.356261     
    887000   2648.8469     -37.174936     -39.571668     -39.571668      2.3967323    
    888000   2652.2894     -36.61464      -39.014487     -39.014487      2.3998472    
    889000   2804.1401     -36.613826     -39.151071     -39.151071      2.5372449    
    890000   2643.6143     -36.926292     -39.31829      -39.31829       2.3919978    
    891000   2710.0843     -36.336211     -38.788352     -38.788352      2.4521413    
    892000   2618.8062     -36.522677     -38.892228     -38.892228      2.3695509    
    893000   2554.1816     -37.08681      -39.397887     -39.397887      2.3110772    
    894000   2720.5513     -36.880132     -39.341744     -39.341744      2.461612     
    895000   2663.1886     -36.531994     -38.941703     -38.941703      2.409709     
    896000   2749.5885     -37.295072     -39.782958     -39.782958      2.4878854    
    897000   2782.2138     -36.85454      -39.371945     -39.371945      2.5174055    
    898000   2686.1144     -36.832548     -39.263001     -39.263001      2.4304527    
    899000   2689.3146     -37.189591     -39.622939     -39.622939      2.4333483    
    900000   2618.3227     -36.910661     -39.279774     -39.279774      2.3691134    
    901000   2569.4045     -37.058536     -39.383387     -39.383387      2.3248512    
    902000   2719.7371     -36.681633     -39.142508     -39.142508      2.4608753    
    903000   2716.9861     -36.91939      -39.377777     -39.377777      2.4583861    
    904000   2707.8083     -36.495414     -38.945496     -38.945496      2.4500819    
    905000   2705.5489     -36.914988     -39.363025     -39.363025      2.4480375    
    906000   2717.2596     -36.461186     -38.919819     -38.919819      2.4586336    
    907000   2692.1119     -37.097594     -39.533474     -39.533474      2.4358794    
    908000   2743.181      -37.240372     -39.72246      -39.72246       2.4820879    
    909000   2692.0744     -36.951098     -39.386944     -39.386944      2.4358454    
    910000   2832.3751     -36.755727     -39.318519     -39.318519      2.5627925    
    911000   2706.1553     -36.136558     -38.585144     -38.585144      2.4485862    
    912000   2717.8994     -36.977918     -39.43713      -39.43713       2.4592125    
    913000   2741.024      -36.59576      -39.075897     -39.075897      2.4801361    
    914000   2736.2951     -36.881597     -39.357455     -39.357455      2.4758574    
    915000   2762.8205     -37.39066      -39.890518     -39.890518      2.499858     
    916000   2755.878      -36.565967     -39.059544     -39.059544      2.4935763    
    917000   2750.0271     -37.024188     -39.51247      -39.51247       2.4882823    
    918000   2763.1322     -37.266092     -39.766232     -39.766232      2.5001401    
    919000   2742.2057     -37.260852     -39.742058     -39.742058      2.4812054    
    920000   2731.0582     -36.871425     -39.342544     -39.342544      2.4711188    
    921000   2773.0056     -36.793267     -39.30234      -39.30234       2.5090737    
    922000   2758.5181     -36.473768     -38.969733     -38.969733      2.4959651    
    923000   2715.8435     -36.938276     -39.395629     -39.395629      2.4573523    
    924000   2791.5165     -36.867403     -39.393226     -39.393226      2.5258228    
    925000   2753.3819     -37.039713     -39.531031     -39.531031      2.4913178    
    926000   2729.1628     -36.548011     -39.017415     -39.017415      2.4694038    
    927000   2779.589      -37.159698     -39.674729     -39.674729      2.5150305    
    928000   2789.289      -37.123375     -39.647183     -39.647183      2.5238073    
    929000   2849.1952     -37.033371     -39.611383     -39.611383      2.5780117    
    930000   2819.4216     -36.775893     -39.326965     -39.326965      2.5510719    
    931000   2795.8046     -36.323337     -38.85304      -38.85304       2.5297028    
    932000   2771.8237     -36.679125     -39.187129     -39.187129      2.5080043    
    933000   2766.983      -36.672133     -39.175758     -39.175758      2.5036243    
    934000   2802.2342     -36.730969     -39.266489     -39.266489      2.5355204    
    935000   2964.6632     -36.28139      -38.96388      -38.96388       2.6824895    
    936000   2814.9925     -36.337199     -38.884264     -38.884264      2.5470644    
    937000   2806.9964     -36.946024     -39.485853     -39.485853      2.5398293    
    938000   2895.1377     -36.614724     -39.234305     -39.234305      2.6195814    
    939000   2838.3262     -36.881782     -39.449959     -39.449959      2.5681772    
    940000   2761.7511     -36.796738     -39.295629     -39.295629      2.4988905    
    941000   2887.6673     -36.125091     -38.737913     -38.737913      2.612822     
    942000   2927.4845     -36.289531     -38.938381     -38.938381      2.6488495    
    943000   2903.5654     -37.169247     -39.796454     -39.796454      2.627207     
    944000   2814.2382     -36.679228     -39.22561      -39.22561       2.5463819    
    945000   2798.2622     -36.814151     -39.346078     -39.346078      2.5319265    
    946000   2860.3784     -36.871082     -39.459212     -39.459212      2.5881305    
    947000   2840.0931     -36.683976     -39.253752     -39.253752      2.5697759    
    948000   2786.4296     -36.791475     -39.312695     -39.312695      2.5212201    
    949000   2947.7573     -36.986305     -39.653498     -39.653498      2.6671928    
    950000   2842.5224     -36.914859     -39.486833     -39.486833      2.571974     
    951000   2938.9042     -36.585492     -39.244674     -39.244674      2.6591823    
    952000   2916.0951     -36.839836     -39.47838      -39.47838       2.6385442    
    953000   2908.3602     -36.765352     -39.396898     -39.396898      2.6315455    
    954000   2844.3318     -36.569809     -39.14342      -39.14342       2.5736112    
    955000   2909.3295     -36.131238     -38.763661     -38.763661      2.6324225    
    956000   2900.3784     -36.778914     -39.403238     -39.403238      2.6243233    
    957000   2834.0632     -36.792281     -39.356601     -39.356601      2.56432      
    958000   2764.942      -36.495734     -38.997512     -38.997512      2.5017776    
    959000   2843.6898     -36.739473     -39.312504     -39.312504      2.5730303    
    960000   2950.4916     -36.203829     -38.873496     -38.873496      2.6696668    
    961000   2813.3726     -36.962735     -39.508333     -39.508333      2.5455986    
    962000   2899.6797     -36.71355      -39.337241     -39.337241      2.6236911    
    963000   2837.5535     -36.031061     -38.59854      -38.59854       2.5674781    
    964000   2924.9426     -36.567963     -39.214513     -39.214513      2.6465495    
    965000   2920.7026     -36.923572     -39.566285     -39.566285      2.6427131    
    966000   2856.036      -35.954745     -38.538946     -38.538946      2.5842014    
    967000   2907.4702     -36.796214     -39.426954     -39.426954      2.6307401    
    968000   2876.2287     -36.301271     -38.903743     -38.903743      2.6024722    
    969000   2922.9533     -36.156212     -38.800961     -38.800961      2.6447495    
    970000   2906.0426     -36.151636     -38.781085     -38.781085      2.6294484    
    971000   2887.0195     -36.432625     -39.044861     -39.044861      2.6122359    
    972000   2873.8281     -36.697798     -39.298098     -39.298098      2.6003       
    973000   2992.7741     -36.482861     -39.190786     -39.190786      2.7079249    
    974000   2928.2894     -36.458261     -39.107839     -39.107839      2.6495778    
    975000   2918.7755     -36.757327     -39.398297     -39.398297      2.6409694    
    976000   2940.9436     -36.951281     -39.612308     -39.612308      2.6610276    
    977000   2885.1514     -36.552929     -39.163475     -39.163475      2.6105457    
    978000   2979.0871     -36.379069     -39.07461      -39.07461       2.6955406    
    979000   2857.847      -37.043563     -39.629403     -39.629403      2.5858401    
    980000   2811.637      -36.561572     -39.1056       -39.1056        2.5440282    
    981000   2944.8497     -36.278676     -38.943238     -38.943238      2.6645619    
    982000   2893.2651     -36.946466     -39.564353     -39.564353      2.6178871    
    983000   2920.7646     -36.669427     -39.312196     -39.312196      2.6427692    
    984000   2927.3989     -36.22007      -38.868842     -38.868842      2.648772     
    985000   2925.1239     -36.167437     -38.814151     -38.814151      2.6467135    
    986000   3033.9054     -35.919434     -38.664576     -38.664576      2.7451413    
    987000   3005.2916     -35.92043      -38.639681     -38.639681      2.719251     
    988000   3019.3376     -36.459339     -39.191299     -39.191299      2.7319601    
    989000   2943.834      -36.814695     -39.478338     -39.478338      2.6636428    
    990000   2925.0102     -36.209526     -38.856137     -38.856137      2.6466107    
    991000   2917.5715     -36.62506      -39.26494      -39.26494       2.63988      
    992000   2980.5117     -36.525939     -39.222769     -39.222769      2.6968296    
    993000   2950.6523     -36.534294     -39.204106     -39.204106      2.6698122    
    994000   3106.448      -35.943327     -38.754107     -38.754107      2.8107794    
    995000   3026.6446     -36.600128     -39.3387       -39.3387        2.7385716    
    996000   3069.6798     -36.103992     -38.881503     -38.881503      2.7775108    
    997000   3120.8549     -37.004298     -39.828113     -39.828113      2.8238151    
    998000   2957.994      -36.017882     -38.694337     -38.694337      2.6764552    
    999000   2968.5728     -36.533561     -39.219588     -39.219588      2.6860271    
   1000000   2996.0773     -36.086035     -38.796948     -38.796948      2.7109137    
Loop time of 36.8093 on 1 procs for 1000000 steps with 8 atoms

Performance: 234.724 ns/day, 0.102 hours/ns, 27167.075 timesteps/s, 217.337 katom-step/s
94.3% CPU use with 1 MPI tasks x 1 OpenMP threads

MPI task timing breakdown:
Section |  min time  |  avg time  |  max time  |%varavg| %total
---------------------------------------------------------------
Pair    | 28.464     | 28.464     | 28.464     |   0.0 | 77.33
Neigh   | 0.30994    | 0.30994    | 0.30994    |   0.0 |  0.84
Comm    | 1.3028     | 1.3028     | 1.3028     |   0.0 |  3.54
Output  | 1.9392     | 1.9392     | 1.9392     |   0.0 |  5.27
Modify  | 3.9631     | 3.9631     | 3.9631     |   0.0 | 10.77
Other   |            | 0.8306     |            |       |  2.26

Nlocal:              8 ave           8 max           8 min
Histogram: 1 0 0 0 0 0 0 0 0 0
Nghost:             52 ave          52 max          52 min
Histogram: 1 0 0 0 0 0 0 0 0 0
Neighs:              0 ave           0 max           0 min
Histogram: 1 0 0 0 0 0 0 0 0 0
FullNghs:           56 ave          56 max          56 min
Histogram: 1 0 0 0 0 0 0 0 0 0

Total # of neighbors = 56
Ave neighs/atom = 7
Neighbor list builds = 2575
Dangerous builds = 0
write_restart 	./endconf/endconf*1.restart
System init for write_restart ...

#==============Constant Temp Phase==================

# Minimize during the constant temperature phase
min_style       sd
minimize        1.0e-5 1.0e-7 500 1000
Per MPI rank memory allocation (min/avg/max) = 6.262 | 6.262 | 6.262 Mbytes
   Step          Temp          TotEng         E_pair         PotEng         KinEng    
   1000000   2996.0773     -36.086035     -38.796948     -38.796948      2.7109137    
   1000065   2996.0773     -37.671021     -40.381935     -40.381935      2.7109137    
Loop time of 0.006081 on 1 procs for 65 steps with 8 atoms

46.6% CPU use with 1 MPI tasks x 1 OpenMP threads

Minimization stats:
  Stopping criterion = energy tolerance
  Energy initial, next-to-last, final = 
     -38.7969484729188   -40.381750968993  -40.3819349136086
  Force two-norm initial, final = 9.5754192 0.16947451
  Force max component initial, final = 4.5524803 0.088220314
  Final line search alpha, max atom move = 0.023154793 0.0020427231
  Iterations, force evaluations = 65 152

MPI task timing breakdown:
Section |  min time  |  avg time  |  max time  |%varavg| %total
---------------------------------------------------------------
Pair    | 0.0021302  | 0.0021302  | 0.0021302  |   0.0 | 35.03
Neigh   | 0          | 0          | 0          |   0.0 |  0.00
Comm    | 8.7087e-05 | 8.7087e-05 | 8.7087e-05 |   0.0 |  1.43
Output  | 0          | 0          | 0          |   0.0 |  0.00
Modify  | 0          | 0          | 0          |   0.0 |  0.00
Other   |            | 0.003864   |            |       | 63.54

Nlocal:              8 ave           8 max           8 min
Histogram: 1 0 0 0 0 0 0 0 0 0
Nghost:             52 ave          52 max          52 min
Histogram: 1 0 0 0 0 0 0 0 0 0
Neighs:              0 ave           0 max           0 min
Histogram: 1 0 0 0 0 0 0 0 0 0
FullNghs:           56 ave          56 max          56 min
Histogram: 1 0 0 0 0 0 0 0 0 0

Total # of neighbors = 56
Ave neighs/atom = 7
Neighbor list builds = 0
Dangerous builds = 0

unfix 			2
fix 			4 all temp/berendsen ${tempchauf} ${tempchauf} ${Tdamp}
fix 			4 all temp/berendsen 3000 ${tempchauf} ${Tdamp}
fix 			4 all temp/berendsen 3000 3000 ${Tdamp}
fix 			4 all temp/berendsen 3000 3000 0.001

run 			${iterther}
run 			100000
Per MPI rank memory allocation (min/avg/max) = 5.137 | 5.137 | 5.137 Mbytes
   Step          Temp          TotEng         E_pair         PotEng         KinEng    
   1000065   2996.0773     -37.671021     -40.381935     -40.381935      2.7109137    
   1001000   2967.3227     -36.050038     -38.734934     -38.734934      2.6848959    
   1002000   2946.378      -36.646568     -39.312513     -39.312513      2.6659448    
   1003000   3070.1445     -36.422967     -39.200898     -39.200898      2.7779312    
   1004000   2942.1541     -36.256633     -38.918755     -38.918755      2.6621229    
   1005000   2908.5164     -36.042046     -38.673733     -38.673733      2.6316867    
   1006000   3142.8404     -36.34897      -39.192678     -39.192678      2.843708     
   1007000   3079.6359     -36.844428     -39.630947     -39.630947      2.7865193    
   1008000   2878.7578     -35.586393     -38.191153     -38.191153      2.6047605    
   1009000   2995.7084     -36.24189      -38.95247      -38.95247       2.7105799    
   1010000   2975.1346     -36.992356     -39.68432      -39.68432       2.6919643    
   1011000   2962.0732     -35.77605      -38.456196     -38.456196      2.6801461    
   1012000   3046.1549     -36.212716     -38.968941     -38.968941      2.756225     
   1013000   2925.2817     -36.062114     -38.70897      -38.70897       2.6468564    
   1014000   3073.172      -35.961047     -38.741718     -38.741718      2.7806706    
   1015000   2978.4245     -36.289611     -38.984552     -38.984552      2.6949411    
   1016000   3016.254      -36.069471     -38.798641     -38.798641      2.72917      
   1017000   2956.613      -36.139541     -38.814746     -38.814746      2.6752056    
   1018000   2885.251      -36.299819     -38.910454     -38.910454      2.6106358    
   1019000   3190.3911     -36.3495       -39.236233     -39.236233      2.8867329    
   1020000   3109.1187     -35.46496      -38.278156     -38.278156      2.813196     
   1021000   3059.6365     -36.764073     -39.532497     -39.532497      2.7684234    
   1022000   2946.7584     -36.510632     -39.176921     -39.176921      2.6662889    
   1023000   3049.5167     -36.217098     -38.976364     -38.976364      2.7592668    
   1024000   2974.406      -36.289405     -38.98071      -38.98071       2.691305     
   1025000   3038.5607     -36.960582     -39.709936     -39.709936      2.7493536    
   1026000   2956.3809     -36.224288     -38.899283     -38.899283      2.6749956    
   1027000   3018.2511     -36.511967     -39.242944     -39.242944      2.730977     
   1028000   3034.1685     -35.623323     -38.368703     -38.368703      2.7453794    
   1029000   3055.2365     -36.144693     -38.909135     -38.909135      2.7644422    
   1030000   3019.7915     -36.680401     -39.412772     -39.412772      2.7323708    
   1031000   2995.988      -36.40419      -39.115023     -39.115023      2.7108329    
   1032000   3139.548      -36.421592     -39.262321     -39.262321      2.840729     
   1033000   3032.5988     -36.200022     -38.943981     -38.943981      2.7439592    
   1034000   2944.2703     -35.951923     -38.61596      -38.61596       2.6640377    
   1035000   3054.7894     -35.950601     -38.714639     -38.714639      2.7640377    
   1036000   3097.1669     -36.11769      -38.920071     -38.920071      2.8023817    
   1037000   2939.0329     -36.001244     -38.660543     -38.660543      2.6592988    
   1038000   3015.3145     -36.357787     -39.086106     -39.086106      2.7283199    
   1039000   3058.6472     -36.414622     -39.182151     -39.182151      2.7675283    
   1040000   3047.8663     -36.973229     -39.731002     -39.731002      2.7577734    
   1041000   3065.5145     -36.579055     -39.352797     -39.352797      2.773742     
   1042000   2921.4605     -35.737022     -38.380421     -38.380421      2.6433989    
   1043000   2920.8505     -36.625116     -39.267963     -39.267963      2.6428469    
   1044000   2998.1953     -36.77865      -39.49148      -39.49148       2.7128301    
   1045000   2908.6148     -36.763416     -39.395191     -39.395191      2.6317758    
   1046000   2980.6483     -36.597614     -39.294567     -39.294567      2.6969532    
   1047000   2975.3903     -36.701723     -39.393919     -39.393919      2.6921956    
   1048000   3027.3545     -36.386487     -39.125701     -39.125701      2.739214     
   1049000   2936.0455     -37.312813     -39.969409     -39.969409      2.6565957    
   1050000   2978.6718     -36.515275     -39.21044      -39.21044       2.6951649    
   1051000   3034.9459     -36.481198     -39.227281     -39.227281      2.7460828    
   1052000   2977.7039     -36.515796     -39.210085     -39.210085      2.6942891    
   1053000   2952.7564     -36.386395     -39.058111     -39.058111      2.6717161    
   1054000   2983.3333     -36.656029     -39.355412     -39.355412      2.6993826    
   1055000   2954.6354     -36.332939     -39.006355     -39.006355      2.6734162    
   1056000   2968.3414     -36.33854      -39.024357     -39.024357      2.6858176    
   1057000   3162.7394     -36.23036      -39.092073     -39.092073      2.861713     
   1058000   2934.7039     -36.336442     -38.991824     -38.991824      2.6553818    
   1059000   3004.5588     -36.314375     -39.032963     -39.032963      2.718588     
   1060000   2912.8902     -36.715657     -39.351302     -39.351302      2.6356443    
   1061000   3037.6336     -36.334017     -39.082531     -39.082531      2.7485147    
   1062000   3098.3798     -36.793848     -39.597327     -39.597327      2.8034791    
   1063000   2968.0419     -36.758731     -39.444278     -39.444278      2.6855467    
   1064000   2949.3885     -36.7068       -39.375468     -39.375468      2.6686687    
   1065000   2992.1529     -36.266782     -38.974145     -38.974145      2.7073628    
   1066000   2998.5016     -35.653645     -38.366752     -38.366752      2.7131073    
   1067000   3010.8408     -36.266338     -38.99061      -38.99061       2.724272     
   1068000   2935.9272     -36.856567     -39.513056     -39.513056      2.6564887    
   1069000   2989.5944     -36.282904     -38.987952     -38.987952      2.7050479    
   1070000   2817.8139     -36.080946     -38.630563     -38.630563      2.5496173    
   1071000   2955.8111     -36.334341     -39.008821     -39.008821      2.67448      
   1072000   3019.6276     -36.323313     -39.055536     -39.055536      2.7322225    
   1073000   3064.8372     -37.062576     -39.835706     -39.835706      2.7731291    
   1074000   2976.2949     -36.789655     -39.482669     -39.482669      2.6930141    
   1075000   2845.5273     -36.118213     -38.692906     -38.692906      2.5746929    
   1076000   3081.9875     -36.604159     -39.392806     -39.392806      2.7886471    
   1077000   2921.2114     -36.620258     -39.263432     -39.263432      2.6431735    
   1078000   2948.9986     -36.785716     -39.454032     -39.454032      2.6683159    
   1079000   3079.8325     -36.361426     -39.148123     -39.148123      2.7866971    
   1080000   2968.7906     -36.32909      -39.015314     -39.015314      2.6862241    
   1081000   3022.259      -36.42231      -39.156913     -39.156913      2.7346035    
   1082000   2834.1941     -36.272147     -38.836585     -38.836585      2.5644384    
   1083000   2888.7769     -36.268498     -38.882324     -38.882324      2.6138261    
   1084000   3002.0076     -35.63128      -38.34756      -38.34756       2.7162795    
   1085000   3158.8601     -35.984176     -38.842379     -38.842379      2.858203     
   1086000   3078.1996     -36.368926     -39.154146     -39.154146      2.7852197    
   1087000   3003.1955     -36.795988     -39.513342     -39.513342      2.7173544    
   1088000   2902.03       -36.842849     -39.468667     -39.468667      2.6258177    
   1089000   3001.5977     -35.745074     -38.460982     -38.460982      2.7159087    
   1090000   2933.8907     -36.198425     -38.853071     -38.853071      2.6546459    
   1091000   3092.0241     -37.332155     -40.129884     -40.129884      2.7977284    
   1092000   2947.9772     -35.907514     -38.574906     -38.574906      2.6673917    
   1093000   3006.8567     -35.819003     -38.53967      -38.53967       2.7206671    
   1094000   3163.1184     -35.219175     -38.081231     -38.081231      2.862056     
   1095000   2996.5169     -35.343335     -38.054647     -38.054647      2.7113115    
   1096000   3136.3031     -36.310976     -39.148769     -39.148769      2.8377929    
   1097000   2935.1168     -35.596428     -38.252183     -38.252183      2.6557553    
   1098000   2997.0084     -36.279166     -38.990922     -38.990922      2.7117562    
   1099000   2803.3633     -36.50363      -39.040172     -39.040172      2.536542     
   1100000   3158.4538     -36.223766     -39.081601     -39.081601      2.8578354    
   1100065   3005.3282     -35.930949     -38.650233     -38.650233      2.7192841    
Loop time of 3.73686 on 1 procs for 100000 steps with 8 atoms

Performance: 231.210 ns/day, 0.104 hours/ns, 26760.401 timesteps/s, 214.083 katom-step/s
96.5% CPU use with 1 MPI tasks x 1 OpenMP threads

MPI task timing breakdown:
Section |  min time  |  avg time  |  max time  |%varavg| %total
---------------------------------------------------------------
Pair    | 3.0025     | 3.0025     | 3.0025     |   0.0 | 80.35
Neigh   | 0.035659   | 0.035659   | 0.035659   |   0.0 |  0.95
Comm    | 0.14978    | 0.14978    | 0.14978    |   0.0 |  4.01
Output  | 0.10208    | 0.10208    | 0.10208    |   0.0 |  2.73
Modify  | 0.38391    | 0.38391    | 0.38391    |   0.0 | 10.27
Other   |            | 0.06297    |            |       |  1.69

Nlocal:              8 ave           8 max           8 min
Histogram: 1 0 0 0 0 0 0 0 0 0
Nghost:             48 ave          48 max          48 min
Histogram: 1 0 0 0 0 0 0 0 0 0
Neighs:              0 ave           0 max           0 min
Histogram: 1 0 0 0 0 0 0 0 0 0
FullNghs:           56 ave          56 max          56 min
Histogram: 1 0 0 0 0 0 0 0 0 0

Total # of neighbors = 56
Ave neighs/atom = 7
Neighbor list builds = 359
Dangerous builds = 0
write_restart 	./endconf/endconf*2.restart
System init for write_restart ...

#=================Cooling Phase=====================

# Re-minimize before cooling
#min_style       sd
#minimize        1.0e-5 1.0e-7 500 1000

unfix 			4
fix 			5 all temp/berendsen ${tempchauf} 0.0 ${Tdamp}
fix 			5 all temp/berendsen 3000 0.0 ${Tdamp}
fix 			5 all temp/berendsen 3000 0.0 0.001

run 			${iter}
run 			1000000
Per MPI rank memory allocation (min/avg/max) = 5.137 | 5.137 | 5.137 Mbytes
   Step          Temp          TotEng         E_pair         PotEng         KinEng    
   1100065   3005.3282     -35.930949     -38.650233     -38.650233      2.7192841    
   1101000   3088.4502     -36.281299     -39.075794     -39.075794      2.7944947    
   1102000   3025.4886     -37.078705     -39.816231     -39.816231      2.7375257    
   1103000   2988.001      -36.72612      -39.429726     -39.429726      2.7036061    
   1104000   2952.4911     -35.970449     -38.641925     -38.641925      2.671476     
   1105000   2977.2647     -36.815614     -39.509506     -39.509506      2.6938917    
   1106000   2888.7155     -36.880879     -39.494649     -39.494649      2.6137704    
   1107000   2980.0314     -36.890882     -39.587277     -39.587277      2.696395     
   1108000   2941.7889     -36.865465     -39.527258     -39.527258      2.6617924    
   1109000   2935.4325     -36.945421     -39.601462     -39.601462      2.656041     
   1110000   2963.7363     -36.632508     -39.314159     -39.314159      2.6816509    
   1111000   2933.9933     -36.434372     -39.08911      -39.08911       2.6547388    
   1112000   2947.8438     -36.713562     -39.380833     -39.380833      2.6672711    
   1113000   2964.3127     -36.336033     -39.018206     -39.018206      2.6821724    
   1114000   2983.2113     -36.082833     -38.782106     -38.782106      2.6992722    
   1115000   2960.134      -36.55669      -39.235082     -39.235082      2.6783914    
   1116000   2975.8252     -36.738335     -39.430924     -39.430924      2.6925891    
   1117000   2960.0775     -36.763729     -39.442069     -39.442069      2.6783403    
   1118000   2989.502      -36.752384     -39.457348     -39.457348      2.7049643    
   1119000   2925.8554     -36.533874     -39.18125      -39.18125       2.6473755    
   1120000   2867.9763     -36.598883     -39.193889     -39.193889      2.5950053    
   1121000   2912.2479     -36.808998     -39.444061     -39.444061      2.6350631    
   1122000   2872.5169     -36.70903      -39.308144     -39.308144      2.5991137    
   1123000   2945.1329     -36.805479     -39.470297     -39.470297      2.6648182    
   1124000   2893.7124     -37.022534     -39.640826     -39.640826      2.6182918    
   1125000   3013.0031     -36.522195     -39.248423     -39.248423      2.7262285    
   1126000   2892.5095     -37.032505     -39.649708     -39.649708      2.6172034    
   1127000   2824.2332     -36.255374     -38.810799     -38.810799      2.5554256    
   1128000   2960.1856     -36.668621     -39.347059     -39.347059      2.6784382    
   1129000   2804.5352     -36.674243     -39.211845     -39.211845      2.5376024    
   1130000   2930.5923     -36.334559     -38.986221     -38.986221      2.6516615    
   1131000   2883.1251     -36.188247     -38.796959     -38.796959      2.6087122    
   1132000   2907.2395     -36.966031     -39.596562     -39.596562      2.6305314    
   1133000   2775.3017     -36.867327     -39.378478     -39.378478      2.5111513    
   1134000   2958.1941     -36.519259     -39.195895     -39.195895      2.6766362    
   1135000   2832.2979     -36.609998     -39.172721     -39.172721      2.5627226    
   1136000   2842.687      -35.267363     -37.839486     -37.839486      2.5721229    
   1137000   2883.0229     -36.881283     -39.489903     -39.489903      2.6086197    
   1138000   2889.2613     -36.492711     -39.106975     -39.106975      2.6142643    
   1139000   2826.67       -35.786549     -38.344179     -38.344179      2.5576304    
   1140000   2975.4309     -36.454373     -39.146605     -39.146605      2.6922324    
   1141000   2734.1284     -36.20372      -38.677617     -38.677617      2.4738969    
   1142000   2871.7902     -35.983063     -38.581519     -38.581519      2.5984562    
   1143000   2914.7758     -36.47311      -39.11046      -39.11046       2.6373504    
   1144000   2729.2973     -36.440115     -38.90964      -38.90964       2.4695256    
   1145000   2767.5342     -36.886346     -39.390469     -39.390469      2.5041231    
   1146000   2880.1324     -35.606624     -38.212628     -38.212628      2.6060043    
   1147000   2867.294      -36.471101     -39.065488     -39.065488      2.5943879    
   1148000   2861.3853     -36.222594     -38.811636     -38.811636      2.5890416    
   1149000   2890.6005     -36.315217     -38.930693     -38.930693      2.6154761    
   1150000   2892.8385     -35.996789     -38.61429      -38.61429       2.617501     
   1151000   2898.7828     -37.223726     -39.846605     -39.846605      2.6228796    
   1152000   2768.5211     -36.399736     -38.904752     -38.904752      2.5050161    
   1153000   2934.5398     -36.533044     -39.188277     -39.188277      2.6552332    
   1154000   2980.9457     -35.823842     -38.521064     -38.521064      2.6972223    
   1155000   2801.3239     -36.873617     -39.408314     -39.408314      2.5346967    
   1156000   2848.7748     -36.951971     -39.529602     -39.529602      2.5776313    
   1157000   2848.8431     -36.559098     -39.136791     -39.136791      2.5776931    
   1158000   2685.6007     -36.719974     -39.149962     -39.149962      2.4299879    
   1159000   2891.0542     -36.569124     -39.185011     -39.185011      2.6158866    
   1160000   2866.3334     -36.931555     -39.525074     -39.525074      2.5935187    
   1161000   2904.8448     -37.146704     -39.775069     -39.775069      2.6283647    
   1162000   2775.419      -36.290457     -38.801715     -38.801715      2.5112574    
   1163000   2795.7402     -36.929162     -39.458806     -39.458806      2.5296445    
   1164000   2670.0423     -36.736122     -39.152032     -39.152032      2.4159104    
   1165000   2698.978      -36.659252     -39.101344     -39.101344      2.4420921    
   1166000   2831.0225     -36.607288     -39.168856     -39.168856      2.5615686    
   1167000   2821.1186     -36.237981     -38.790588     -38.790588      2.5526074    
   1168000   2883.4872     -36.798637     -39.407677     -39.407677      2.6090398    
   1169000   2828.0377     -36.934142     -39.49301      -39.49301       2.558868     
   1170000   2650.1551     -35.943031     -38.340947     -38.340947      2.3979161    
   1171000   2757.5823     -36.283343     -38.778461     -38.778461      2.4951184    
   1172000   2816.021      -36.574546     -39.122541     -39.122541      2.547995     
   1173000   2767.6438     -36.827822     -39.332044     -39.332044      2.5042223    
   1174000   2644.8782     -36.71552      -39.108662     -39.108662      2.3931414    
   1175000   2843.452      -36.317179     -38.889994     -38.889994      2.5728152    
   1176000   2761.2456     -37.015166     -39.513599     -39.513599      2.498433     
   1177000   2686.8648     -36.115453     -38.546585     -38.546585      2.4311318    
   1178000   2718.2589     -36.312962     -38.772499     -38.772499      2.4595378    
   1179000   2669.0589     -36.710731     -39.125752     -39.125752      2.4150206    
   1180000   2690.5743     -36.599229     -39.033717     -39.033717      2.4344881    
   1181000   2875.6986     -36.484339     -39.086332     -39.086332      2.6019925    
   1182000   2802.1915     -37.027067     -39.562548     -39.562548      2.5354818    
   1183000   2751.4599     -36.527418     -39.016997     -39.016997      2.4895788    
   1184000   2753.5761     -36.119454     -38.610947     -38.610947      2.4914935    
   1185000   2828.6051     -37.102225     -39.661606     -39.661606      2.5593813    
   1186000   2746.0054     -36.768171     -39.252814     -39.252814      2.4846434    
   1187000   2775.8527     -36.84538      -39.35703      -39.35703       2.5116499    
   1188000   2776.1528     -36.723797     -39.235718     -39.235718      2.5119214    
   1189000   2806.2033     -36.289269     -38.828381     -38.828381      2.5391118    
   1190000   2743.3243     -36.690776     -39.172994     -39.172994      2.4822175    
   1191000   2710.5385     -36.937419     -39.389971     -39.389971      2.4525522    
   1192000   2716.5709     -36.648298     -39.106308     -39.106308      2.4580105    
   1193000   2752.2982     -36.549499     -39.039837     -39.039837      2.4903372    
   1194000   2663.9833     -36.8088       -39.219228     -39.219228      2.4104281    
   1195000   2733.5851     -36.717623     -39.191028     -39.191028      2.4734053    
   1196000   2696.0459     -36.905544     -39.344983     -39.344983      2.439439     
   1197000   2676.5372     -36.521782     -38.943569     -38.943569      2.4217871    
   1198000   2686.4173     -36.557353     -38.98808      -38.98808       2.4307268    
   1199000   2797.4367     -36.846902     -39.378082     -39.378082      2.5311795    
   1200000   2822.2633     -36.903645     -39.457289     -39.457289      2.5536431    
   1201000   2700.0504     -36.712567     -39.15563      -39.15563       2.4430623    
   1202000   2670.7899     -36.611377     -39.027964     -39.027964      2.4165868    
   1203000   2666.3513     -36.572377     -38.984948     -38.984948      2.4125707    
   1204000   2656.8255     -36.812155     -39.216106     -39.216106      2.4039515    
   1205000   2688.5842     -36.452621     -38.885308     -38.885308      2.4326875    
   1206000   2706.12       -36.677784     -39.126338     -39.126338      2.4485542    
   1207000   2672.3762     -36.550706     -38.968728     -38.968728      2.4180221    
   1208000   2632.9967     -36.629151     -39.011542     -39.011542      2.3823907    
   1209000   2792.8151     -36.410178     -38.937176     -38.937176      2.5269978    
   1210000   2641.1346     -36.897653     -39.287407     -39.287407      2.3897541    
   1211000   2718.1709     -36.390308     -38.849766     -38.849766      2.4594581    
   1212000   2740.077      -36.962153     -39.441432     -39.441432      2.4792792    
   1213000   2478.669      -36.820104     -39.062856     -39.062856      2.2427518    
   1214000   2520.984      -36.78529      -39.066329     -39.066329      2.2810393    
   1215000   2537.7253     -36.731571     -39.027759     -39.027759      2.2961872    
   1216000   2680.3272     -37.030768     -39.455985     -39.455985      2.4252164    
   1217000   2560.1487     -36.87537      -39.191846     -39.191846      2.3164763    
   1218000   2680.834      -37.107914     -39.533589     -39.533589      2.425675     
   1219000   2557.0914     -37.28614      -39.59985      -39.59985       2.31371      
   1220000   2628.2634     -36.038585     -38.416693     -38.416693      2.3781079    
   1221000   2669.159      -35.654532     -38.069643     -38.069643      2.4151112    
   1222000   2621.98       -35.474106     -37.846528     -37.846528      2.3724226    
   1223000   2688.7        -36.850427     -39.283219     -39.283219      2.4327922    
   1224000   2496.7952     -36.254814     -38.513967     -38.513967      2.2591527    
   1225000   2577.7401     -35.910806     -38.243199     -38.243199      2.3323935    
   1226000   2662.8622     -36.055927     -38.46534      -38.46534       2.4094137    
   1227000   2725.4061     -36.916633     -39.382638     -39.382638      2.4660047    
   1228000   2664.39       -36.622387     -39.033183     -39.033183      2.410796     
   1229000   2571.8804     -36.15736      -38.484451     -38.484451      2.3270915    
   1230000   2677.1321     -37.142526     -39.564852     -39.564852      2.4223254    
   1231000   2572.6612     -36.712184     -39.039982     -39.039982      2.3277979    
   1232000   2697.0359     -35.108909     -37.549244     -37.549244      2.4403347    
   1233000   2570.7        -36.397478     -38.723502     -38.723502      2.3260234    
   1234000   2676.0897     -36.613002     -39.034385     -39.034385      2.4213822    
   1235000   2742.2746     -36.970452     -39.451719     -39.451719      2.4812677    
   1236000   2478.9627     -35.866776     -38.109793     -38.109793      2.2430176    
   1237000   2694.3884     -35.928394     -38.366333     -38.366333      2.4379393    
   1238000   2643.745      -35.402898     -37.795014     -37.795014      2.3921161    
   1239000   2577.6654     -36.99161      -39.323936     -39.323936      2.3323258    
   1240000   2672.3965     -35.87524      -38.29328      -38.29328       2.4180405    
   1241000   2681.9196     -36.477832     -38.904489     -38.904489      2.4266572    
   1242000   2533.142      -35.707305     -37.999345     -37.999345      2.2920401    
   1243000   2406.2948     -35.840477     -38.017744     -38.017744      2.1772661    
   1244000   2541.9997     -34.698178     -36.998233     -36.998233      2.3000548    
   1245000   2526.3446     -35.54492      -37.83081      -37.83081       2.2858897    
   1246000   2727.2884     -36.645539     -39.113247     -39.113247      2.4677079    
   1247000   2606.4711     -36.972181     -39.33057      -39.33057       2.3583898    
   1248000   2623.6952     -36.779924     -39.153898     -39.153898      2.3739746    
   1249000   2527.8809     -36.343252     -38.630531     -38.630531      2.2872798    
   1250000   2627.0042     -36.395007     -38.771976     -38.771976      2.3769686    
   1251000   2540.7168     -36.924656     -39.22355      -39.22355       2.2988939    
   1252000   2554.8048     -36.28236      -38.594001     -38.594001      2.3116411    
   1253000   2510.8611     -37.01998      -39.29186      -39.29186       2.2718799    
   1254000   2533.1777     -36.605152     -38.897224     -38.897224      2.2920724    
   1255000   2629.8398     -36.218484     -38.598018     -38.598018      2.3795343    
   1256000   2440.7893     -37.017183     -39.22566      -39.22566       2.2084775    
   1257000   2562.259      -35.873964     -38.19235      -38.19235       2.3183858    
   1258000   2531.4391     -36.974778     -39.265277     -39.265277      2.2904993    
   1259000   2625.6386     -36.450236     -38.825969     -38.825969      2.375733     
   1260000   2681.3546     -33.488188     -35.914334     -35.914334      2.426146     
   1261000   2448.232      -35.962681     -38.177892     -38.177892      2.2152118    
   1262000   2393.4371     -35.255895     -37.421527     -37.421527      2.1656322    
   1263000   2744.2247     -35.236826     -37.719858     -37.719858      2.4830322    
   1264000   2579.303      -35.622288     -37.956096     -37.956096      2.3338075    
   1265000   2427.5246     -35.071236     -37.267711     -37.267711      2.1964753    
   1266000   2490.7872     -36.883457     -39.137174     -39.137174      2.2537166    
   1267000   2568.8525     -33.794759     -36.119111     -36.119111      2.3243517    
   1268000   2630.3512     -35.472867     -37.852864     -37.852864      2.379997     
   1269000   2226.4032     -35.820272     -37.834769     -37.834769      2.0144964    
   1270000   2372.098      -34.61794      -36.764264     -36.764264      2.1463242    
   1271000   2697.4295     -35.719527     -38.160218     -38.160218      2.4406909    
   1272000   2462.8284     -36.465218     -38.693637     -38.693637      2.2284189    
   1273000   2454.9747     -36.032077     -38.25339      -38.25339       2.2213127    
   1274000   2445.0392     -33.273983     -35.486306     -35.486306      2.2123229    
   1275000   2419.6948     -35.610346     -37.799736     -37.799736      2.1893907    
   1276000   2385.1709     -33.852909     -36.011062     -36.011062      2.1581527    
   1277000   2581.8054     -36.422457     -38.758529     -38.758529      2.3360718    
   1278000   2289.9159     -33.142789     -35.214753     -35.214753      2.071964     
   1279000   2363.4097     -36.182117     -38.32058      -38.32058       2.1384628    
   1280000   2370.1077     -32.946718     -35.091241     -35.091241      2.1445233    
   1281000   2344.1003     -36.019865     -38.140856     -38.140856      2.1209912    
   1282000   2361.7186     -36.334704     -38.471637     -38.471637      2.1369326    
   1283000   2397.6328     -36.597323     -38.766752     -38.766752      2.1694285    
   1284000   2553.3271     -36.280598     -38.590902     -38.590902      2.3103041    
   1285000   2412.4782     -35.079609     -37.26247      -37.26247       2.182861     
   1286000   2477.9326     -36.644053     -38.886139     -38.886139      2.2420855    
   1287000   2483.3156     -36.134034     -38.380991     -38.380991      2.2469561    
   1288000   2365.8378     -36.756862     -38.897522     -38.897522      2.1406597    
   1289000   2523.9806     -35.673003     -37.956754     -37.956754      2.2837507    
   1290000   2490.6878     -35.868724     -38.122351     -38.122351      2.2536266    
   1291000   2444.8155     -36.438081     -38.650201     -38.650201      2.2121204    
   1292000   2471.1246     -35.461981     -37.697907     -37.697907      2.2359255    
   1293000   2426.625      -36.020854     -38.216515     -38.216515      2.1956613    
   1294000   2398.6081     -35.964075     -38.134386     -38.134386      2.170311     
   1295000   2294.0087     -36.933926     -39.009593     -39.009593      2.0756673    
   1296000   2488.5015     -34.453584     -36.705232     -36.705232      2.2516484    
   1297000   2455.2551     -36.033217     -38.254784     -38.254784      2.2215664    
   1298000   2376.3439     -35.916824     -38.06699      -38.06699       2.1501659    
   1299000   2282.7369     -35.609831     -37.675299     -37.675299      2.0654683    
   1300000   2423.7974     -36.953491     -39.146594     -39.146594      2.1931028    
   1301000   2437.6123     -36.298812     -38.504414     -38.504414      2.2056028    
   1302000   2476.5171     -35.876218     -38.117022     -38.117022      2.2408047    
   1303000   2607.7463     -36.023547     -38.38309      -38.38309       2.3595436    
   1304000   2700.3911     -36.001521     -38.444891     -38.444891      2.4433706    
   1305000   2318.7666     -35.604048     -37.702116     -37.702116      2.0980687    
   1306000   2470.3078     -37.044237     -39.279423     -39.279423      2.2351864    
   1307000   2330.1575     -35.562765     -37.671141     -37.671141      2.1083754    
   1308000   2454.4167     -37.018881     -39.239689     -39.239689      2.2208078    
   1309000   2353.366      -35.427534     -37.556909     -37.556909      2.129375     
   1310000   2305.1601     -37.097872     -39.18363      -39.18363       2.0857573    
   1311000   2321.8113     -37.354768     -39.455591     -39.455591      2.1008237    
   1312000   2387.519      -35.6951       -37.855377     -37.855377      2.1602774    
   1313000   2328.0945     -37.283424     -39.389932     -39.389932      2.1065088    
   1314000   2345.0955     -36.520586     -38.642477     -38.642477      2.1218917    
   1315000   2471.7576     -36.826099     -39.062597     -39.062597      2.2364982    
   1316000   2302.6133     -36.209152     -38.292605     -38.292605      2.0834529    
   1317000   2286.3977     -37.416582     -39.485362     -39.485362      2.0687807    
   1318000   2313.5167     -37.756583     -39.849902     -39.849902      2.0933186    
   1319000   2193.215      -36.318692     -38.303159     -38.303159      1.984467     
   1320000   2316.5003     -37.72094      -39.816959     -39.816959      2.0960182    
   1321000   2302.1332     -37.362364     -39.445383     -39.445383      2.0830185    
   1322000   2327.5517     -36.60549      -38.711508     -38.711508      2.1060177    
   1323000   2421.9547     -37.290443     -39.481879     -39.481879      2.1914355    
   1324000   2351.2425     -35.827131     -37.954584     -37.954584      2.1274536    
   1325000   2374.5325     -35.785505     -37.934032     -37.934032      2.1485269    
   1326000   2423.3678     -35.924157     -38.116871     -38.116871      2.1927141    
   1327000   2422.7206     -36.54005      -38.732178     -38.732178      2.1921285    
   1328000   2100.2379     -36.24472      -38.145059     -38.145059      1.9003394    
   1329000   2028.7602     -35.444535     -37.2802       -37.2802        1.8356649    
   1330000   2169.8574     -36.10179      -38.065123     -38.065123      1.9633326    
   1331000   2155.9274     -36.45922      -38.409949     -38.409949      1.9507284    
   1332000   2087.5289     -35.649514     -37.538354     -37.538354      1.88884      
   1333000   2299.942      -36.738301     -38.819336     -38.819336      2.0810358    
   1334000   2359.528      -35.808044     -37.942994     -37.942994      2.1349505    
   1335000   2376.0659     -35.432849     -37.582764     -37.582764      2.1499143    
   1336000   2286.1784     -36.967936     -39.036518     -39.036518      2.0685823    
   1337000   2151.9218     -35.546334     -37.493438     -37.493438      1.9471041    
   1338000   2205.3074     -37.017594     -39.013003     -39.013003      1.9954085    
   1339000   2215.4382     -35.748656     -37.753231     -37.753231      2.004575     
   1340000   2306.525      -36.398805     -38.485797     -38.485797      2.0869923    
   1341000   2174.8218     -37.111557     -39.079381     -39.079381      1.9678245    
   1342000   2205.6186     -36.168322     -38.164012     -38.164012      1.9956901    
   1343000   2356.0339     -36.157822     -38.289611     -38.289611      2.131789     
   1344000   2221.4267     -35.312747     -37.32274      -37.32274       2.0099935    
   1345000   2289.4123     -36.407994     -38.479502     -38.479502      2.0715084    
   1346000   2326.7919     -36.750132     -38.855463     -38.855463      2.1053302    
   1347000   2186.7358     -35.759579     -37.738183     -37.738183      1.9786045    
   1348000   2179.9664     -37.130908     -39.103388     -39.103388      1.9724794    
   1349000   2135.6765     -34.213184     -36.145589     -36.145589      1.932405     
   1350000   2172.5343     -37.305412     -39.271166     -39.271166      1.9657547    
   1351000   2255.3623     -36.054118     -38.094817     -38.094817      2.0406992    
   1352000   2184.4687     -36.891576     -38.868129     -38.868129      1.9765532    
   1353000   2278.3783     -36.513812     -38.575336     -38.575336      2.0615246    
   1354000   2056.8685     -35.984815     -37.845913     -37.845913      1.8610978    
   1355000   2203.7418     -37.104336     -39.098328     -39.098328      1.9939919    
   1356000   2221.1386     -35.171064     -37.180796     -37.180796      2.0097329    
   1357000   2179.4519     -36.834455     -38.806468     -38.806468      1.9720139    
   1358000   2321.2345     -35.89846      -37.998762     -37.998762      2.1003017    
   1359000   2382.0016     -36.702132     -38.857418     -38.857418      2.1552851    
   1360000   2348.8394     -36.952262     -39.077542     -39.077542      2.1252793    
   1361000   2207.1753     -35.139535     -37.136634     -37.136634      1.9970986    
   1362000   2219.545      -37.382296     -39.390587     -39.390587      2.0082909    
   1363000   2215.4783     -35.809549     -37.81416      -37.81416       2.0046114    
   1364000   2033.8652     -36.310309     -38.150593     -38.150593      1.840284     
   1365000   2138.8544     -36.591409     -38.52669      -38.52669       1.9352804    
   1366000   2306.2739     -36.053043     -38.139808     -38.139808      2.0867651    
   1367000   2288.4379     -37.022028     -39.092654     -39.092654      2.0706267    
   1368000   2646.8276     -34.008345     -36.40325      -36.40325       2.3949053    
   1369000   2113.6019     -37.195175     -39.107607     -39.107607      1.9124314    
   1370000   2346.3084     -35.99723      -38.120219     -38.120219      2.1229892    
   1371000   2090.8275     -36.371957     -38.263782     -38.263782      1.8918247    
   1372000   2248.4484     -35.670906     -37.705349     -37.705349      2.0344434    
   1373000   2056.2371     -36.890133     -38.750659     -38.750659      1.8605266    
   1374000   2203.3337     -36.502121     -38.495744     -38.495744      1.9936226    
   1375000   2247.8074     -36.318615     -38.352478     -38.352478      2.0338634    
   1376000   2176.4336     -37.241818     -39.211101     -39.211101      1.9692829    
   1377000   2202.5319     -36.346583     -38.33948      -38.33948       1.9928971    
   1378000   2198.0479     -37.257496     -39.246336     -39.246336      1.9888399    
   1379000   2247.4313     -35.741738     -37.775261     -37.775261      2.0335231    
   1380000   1949.5418     -37.167659     -38.931645     -38.931645      1.7639864    
   1381000   2290.99       -36.549852     -38.622788     -38.622788      2.0729359    
   1382000   2186.5267     -36.360777     -38.339192     -38.339192      1.9784153    
   1383000   2302.4435     -36.139273     -38.222572     -38.222572      2.0832993    
   1384000   2163.6275     -37.101073     -39.058769     -39.058769      1.9576957    
   1385000   2396.0827     -36.298027     -38.466053     -38.466053      2.1680259    
   1386000   2050.41       -36.013926     -37.86918      -37.86918       1.855254     
   1387000   2262.345      -36.154606     -38.201623     -38.201623      2.0470173    
   1388000   2202.965      -36.444274     -38.437563     -38.437563      1.993289     
   1389000   2232.4567     -36.64742      -38.667394     -38.667394      2.0199738    
   1390000   2154.5709     -35.375285     -37.324786     -37.324786      1.949501     
   1391000   2024.8639     -36.894238     -38.726378     -38.726378      1.8321394    
   1392000   2024.0451     -37.095578     -38.926976     -38.926976      1.8313985    
   1393000   2139.6011     -36.156307     -38.092263     -38.092263      1.935956     
   1394000   2152.0211     -36.723017     -38.670211     -38.670211      1.9471939    
   1395000   2061.9016     -35.833442     -37.699094     -37.699094      1.8656519    
   1396000   2165.7278     -34.670456     -36.630052     -36.630052      1.959596     
   1397000   1997.5379     -36.030133     -37.837547     -37.837547      1.8074143    
   1398000   1984.3263     -37.082282     -38.877743     -38.877743      1.7954602    
   1399000   1985.622      -36.157964     -37.954597     -37.954597      1.7966325    
   1400000   2102.4117     -36.510176     -38.412482     -38.412482      1.9023063    
   1401000   1947.5347     -37.008103     -38.770274     -38.770274      1.7621703    
   1402000   1950.239      -35.841864     -37.606481     -37.606481      1.7646173    
   1403000   1897.0538     -35.342837     -37.059331     -37.059331      1.7164942    
   1404000   2200.2822     -36.882189     -38.87305      -38.87305       1.9908616    
   1405000   2005.501      -35.983061     -37.79768      -37.79768       1.8146194    
   1406000   2079.7441     -36.914846     -38.796642     -38.796642      1.8817962    
   1407000   2067.4094     -36.695757     -38.566392     -38.566392      1.8706354    
   1408000   2176.1023     -34.948147     -36.91713      -36.91713       1.9689831    
   1409000   2071.8936     -37.144856     -39.019549     -39.019549      1.8746929    
   1410000   2108.2205     -36.860493     -38.768055     -38.768055      1.9075622    
   1411000   2023.7009     -35.532699     -37.363786     -37.363786      1.8310871    
   1412000   2135.249      -36.814601     -38.746619     -38.746619      1.9320182    
   1413000   2169.1055     -35.322139     -37.284791     -37.284791      1.9626523    
   1414000   1894.3656     -36.556694     -38.270756     -38.270756      1.7140618    
   1415000   2084.362      -37.766521     -39.652495     -39.652495      1.8859745    
   1416000   2094.0988     -36.434997     -38.329782     -38.329782      1.8947846    
   1417000   2192.4003     -36.726791     -38.71052      -38.71052       1.9837299    
   1418000   2052.6489     -36.819932     -38.677211     -38.677211      1.8572798    
   1419000   2057.5098     -35.638398     -37.500076     -37.500076      1.8616781    
   1420000   1936.0385     -34.79332      -36.545088     -36.545088      1.7517683    
   1421000   1952.5937     -36.508128     -38.274875     -38.274875      1.7667478    
   1422000   1992.8275     -36.831        -38.634152     -38.634152      1.8031522    
   1423000   1995.156      -35.366165     -37.171424     -37.171424      1.8052591    
   1424000   2028.5721     -37.324542     -39.160037     -39.160037      1.8354947    
   1425000   2099.0327     -36.424367     -38.323616     -38.323616      1.8992489    
   1426000   2001.82       -35.766629     -37.577918     -37.577918      1.8112888    
   1427000   1970.2705     -37.578833     -39.361576     -39.361576      1.7827422    
   1428000   2051.79       -36.548748     -38.40525      -38.40525       1.8565027    
   1429000   2063.9843     -36.527407     -38.394943     -38.394943      1.8675364    
   1430000   1884.764      -36.401005     -38.106379     -38.106379      1.7053741    
   1431000   1884.778      -36.220827     -37.926213     -37.926213      1.7053868    
   1432000   2010.2549     -36.418234     -38.237155     -38.237155      1.8189209    
   1433000   1928.4971     -36.880436     -38.625381     -38.625381      1.7449447    
   1434000   1925.6238     -36.155456     -37.897801     -37.897801      1.7423449    
   1435000   2050.6507     -36.98224      -38.837712     -38.837712      1.8554719    
   1436000   2056.6149     -36.093458     -37.954327     -37.954327      1.8608683    
   1437000   2034.1095     -36.321332     -38.161837     -38.161837      1.840505     
   1438000   1936.2841     -37.104092     -38.856082     -38.856082      1.7519905    
   1439000   1961.6581     -36.012715     -37.787665     -37.787665      1.7749494    
   1440000   1955.9795     -36.299903     -38.069714     -38.069714      1.7698113    
   1441000   2023.8884     -37.4822       -39.313457     -39.313457      1.8312568    
   1442000   1927.3566     -36.083311     -37.827224     -37.827224      1.7439128    
   1443000   2008.765      -35.609179     -37.426752     -37.426752      1.8175728    
   1444000   1925.2736     -35.594756     -37.336784     -37.336784      1.742028     
   1445000   1994.4063     -36.386114     -38.190695     -38.190695      1.8045807    
   1446000   2049.14       -37.224225     -39.07833      -39.07833       1.8541049    
   1447000   1949.2644     -36.764399     -38.528135     -38.528135      1.7637354    
   1448000   1951.6628     -35.849472     -37.615378     -37.615378      1.7659055    
   1449000   2036.6045     -36.302351     -38.145113     -38.145113      1.8427625    
   1450000   2140.7137     -35.547379     -37.484342     -37.484342      1.9369628    
   1451000   1898.5044     -35.815061     -37.532868     -37.532868      1.7178067    
   1452000   1897.7279     -37.48581      -39.202914     -39.202914      1.7171041    
   1453000   2047.1954     -36.689959     -38.542304     -38.542304      1.8523454    
   1454000   1882.5383     -36.575288     -38.278649     -38.278649      1.7033603    
   1455000   1879.1972     -37.181602     -38.881939     -38.881939      1.7003371    
   1456000   1856.0115     -36.497988     -38.177346     -38.177346      1.6793582    
   1457000   1979.8146     -35.933175     -37.724553     -37.724553      1.7913778    
   1458000   1834.3009     -37.042422     -38.702136     -38.702136      1.659714     
   1459000   2043.9506     -36.662391     -38.5118       -38.5118        1.8494094    
   1460000   1833.1023     -36.594834     -38.253463     -38.253463      1.6586295    
   1461000   1855.52       -36.48048      -38.159394     -38.159394      1.6789135    
   1462000   1891.5153     -37.344972     -39.056454     -39.056454      1.7114828    
   1463000   1901.9244     -36.939244     -38.660145     -38.660145      1.7209012    
   1464000   1769.6807     -35.424983     -37.026227     -37.026227      1.6012443    
   1465000   1870.5578     -36.964823     -38.657343     -38.657343      1.69252      
   1466000   1862.1406     -36.459758     -38.144662     -38.144662      1.684904     
   1467000   1885.7674     -36.580963     -38.287245     -38.287245      1.706282     
   1468000   1891.5019     -37.203879     -38.91535      -38.91535       1.7114707    
   1469000   1860.6964     -37.315181     -38.998778     -38.998778      1.6835972    
   1470000   1868.7748     -37.083563     -38.77447      -38.77447       1.6909067    
   1471000   1843.4315     -36.802577     -38.470552     -38.470552      1.6679756    
   1472000   1963.7434     -36.874307     -38.651143     -38.651143      1.7768363    
   1473000   1821.6384     -37.032778     -38.681034     -38.681034      1.6482567    
   1474000   1988.9472     -36.685487     -38.485128     -38.485128      1.7996412    
   1475000   1957.3719     -36.806032     -38.577103     -38.577103      1.7710713    
   1476000   1810.0508     -37.116452     -38.754224     -38.754224      1.637772     
   1477000   1877.1829     -36.312305     -38.01082      -38.01082       1.6985146    
   1478000   1823.8353     -36.628964     -38.279208     -38.279208      1.6502445    
   1479000   1891.9359     -36.800322     -38.512185     -38.512185      1.7118634    
   1480000   1883.3034     -37.348959     -39.053012     -39.053012      1.7040525    
   1481000   1906.539      -36.847784     -38.57286      -38.57286       1.7250765    
   1482000   1735.3141     -36.640265     -38.210413     -38.210413      1.5701487    
   1483000   1895.0709     -36.757083     -38.471783     -38.471783      1.7146999    
   1484000   1957.042      -36.028753     -37.799526     -37.799526      1.7707728    
   1485000   1725.6819     -36.377028     -37.938461     -37.938461      1.5614332    
   1486000   1902.3913     -37.175636     -38.89696      -38.89696       1.7213236    
   1487000   1919.652      -35.38136      -37.118302     -37.118302      1.7369415    
   1488000   1826.8122     -37.577062     -39.23         -39.23          1.652938     
   1489000   1864.9274     -36.700851     -38.388277     -38.388277      1.6874255    
   1490000   1829.1319     -37.20601      -38.861046     -38.861046      1.655037     
   1491000   1812.7979     -36.98424      -38.624498     -38.624498      1.6402576    
   1492000   1876.7208     -35.63034      -37.328436     -37.328436      1.6980964    
   1493000   1621.4942     -36.890386     -38.357548     -38.357548      1.467162     
   1494000   1805.6417     -37.358284     -38.992067     -38.992067      1.6337825    
   1495000   1734.3992     -35.661877     -37.231197     -37.231197      1.5693208    
   1496000   1782.9454     -37.104793     -38.718039     -38.718039      1.6132464    
   1497000   1689.2923     -37.038601     -38.567108     -38.567108      1.5285072    
   1498000   1903.6474     -36.61832      -38.34078      -38.34078       1.7224602    
   1499000   1706.7691     -37.11004      -38.65436      -38.65436       1.5443205    
   1500000   1765.087      -37.248781     -38.845869     -38.845869      1.5970878    
   1501000   1624.041      -34.442569     -35.912035     -35.912035      1.4694665    
   1502000   1903.817      -37.364548     -39.087162     -39.087162      1.7226136    
   1503000   1871.2016     -36.425608     -38.118711     -38.118711      1.6931026    
   1504000   1838.4755     -37.138498     -38.801989     -38.801989      1.6634913    
   1505000   1854.9485     -37.422557     -39.100953     -39.100953      1.6783964    
   1506000   1964.3903     -35.657267     -37.434688     -37.434688      1.7774216    
   1507000   1720.6579     -37.656138     -39.213026     -39.213026      1.5568875    
   1508000   1787.5086     -37.456418     -39.073793     -39.073793      1.6173753    
   1509000   1577.0082     -35.331804     -36.758714     -36.758714      1.4269102    
   1510000   1663.1471     -37.423506     -38.928357     -38.928357      1.5048504    
   1511000   1974.6229     -34.742524     -36.529204     -36.529204      1.7866803    
   1512000   1669.5339     -37.099107     -38.609736     -38.609736      1.5106294    
   1513000   1835.8369     -37.535754     -39.196858     -39.196858      1.6611038    
   1514000   1671.2104     -36.537639     -38.049785     -38.049785      1.5121463    
   1515000   1635.0636     -37.09604      -38.57548      -38.57548       1.4794399    
   1516000   1761.6359     -37.632082     -39.226047     -39.226047      1.5939652    
   1517000   1828.9838     -36.696733     -38.351636     -38.351636      1.654903     
   1518000   1679.8738     -37.039708     -38.559693     -38.559693      1.5199851    
   1519000   1769.323      -37.254832     -38.855753     -38.855753      1.6009206    
   1520000   1761.2645     -37.06114      -38.65477      -38.65477       1.5936291    
   1521000   1744.4139     -37.508766     -39.087148     -39.087148      1.5783824    
   1522000   1786.4842     -37.634518     -39.250966     -39.250966      1.6164484    
   1523000   1702.6485     -36.26487      -37.805462     -37.805462      1.5405922    
   1524000   1711.9283     -37.01889      -38.567879     -38.567879      1.5489887    
   1525000   1646.7036     -37.727369     -39.217341     -39.217341      1.489972     
   1526000   1751.2424     -36.98934      -38.573901     -38.573901      1.5845609    
   1527000   1758.886      -37.227934     -38.819411     -38.819411      1.591477     
   1528000   1792.4773     -37.879164     -39.501035     -39.501035      1.6218711    
   1529000   1732.9894     -36.785289     -38.353334     -38.353334      1.5680453    
   1530000   1576.2997     -36.534352     -37.960621     -37.960621      1.4262691    
   1531000   1769.0488     -37.861975     -39.462648     -39.462648      1.6006725    
   1532000   1698.0647     -36.608407     -38.144852     -38.144852      1.5364446    
   1533000   1602.7967     -37.553091     -39.003335     -39.003335      1.4502442    
   1534000   1707.5185     -37.875925     -39.420923     -39.420923      1.5449987    
   1535000   1667.3371     -36.914883     -38.423525     -38.423525      1.5086416    
   1536000   1558.8653     -37.705931     -39.116425     -39.116425      1.410494     
   1537000   1669.5495     -37.272275     -38.782918     -38.782918      1.5106434    
   1538000   1784.0374     -36.331139     -37.945373     -37.945373      1.6142345    
   1539000   1675.7238     -37.548713     -39.064943     -39.064943      1.5162301    
   1540000   1739.2132     -37.134708     -38.708384     -38.708384      1.5736767    
   1541000   1607.7222     -37.239755     -38.694456     -38.694456      1.4547008    
   1542000   1676.3447     -37.533491     -39.050283     -39.050283      1.5167919    
   1543000   1629.3786     -36.57036      -38.044656     -38.044656      1.474296     
   1544000   1616.2153     -37.598387     -39.060773     -39.060773      1.4623856    
   1545000   1737.4585     -37.278573     -38.850661     -38.850661      1.5720889    
   1546000   1748.8153     -36.26236      -37.844724     -37.844724      1.5823648    
   1547000   1503.7256     -37.609541     -38.970143     -38.970143      1.3606025    
   1548000   1721.9708     -37.794801     -39.352876     -39.352876      1.5580754    
   1549000   1802.1224     -37.197635     -38.828233     -38.828233      1.6305983    
   1550000   1677.3093     -37.682128     -39.199793     -39.199793      1.5176647    
   1551000   1785.4799     -37.151819     -38.767359     -38.767359      1.6155397    
   1552000   1582.1239     -36.521864     -37.953403     -37.953403      1.431539     
   1553000   1651.9302     -37.715012     -39.209713     -39.209713      1.4947011    
   1554000   1712.6059     -37.943513     -39.493115     -39.493115      1.5496018    
   1555000   1504.6084     -36.974895     -38.336296     -38.336296      1.3614013    
   1556000   1649.7517     -37.459562     -38.952292     -38.952292      1.49273      
   1557000   1542.8565     -37.123617     -38.519626     -38.519626      1.396009     
   1558000   1777.3804     -35.869789     -37.478        -37.478         1.6082111    
   1559000   1612.391      -37.579362     -39.038288     -39.038288      1.4589253    
   1560000   1653.6752     -37.316811     -38.813091     -38.813091      1.4962801    
   1561000   1610.8814     -37.602507     -39.060066     -39.060066      1.4575593    
   1562000   1679.7145     -37.163115     -38.682956     -38.682956      1.519841     
   1563000   1789.9872     -37.239505     -38.859123     -38.859123      1.619618     
   1564000   1535.5226     -36.631825     -38.021198     -38.021198      1.3893731    
   1565000   1544.9306     -37.068719     -38.466605     -38.466605      1.3978857    
   1566000   1678.4017     -36.900392     -38.419046     -38.419046      1.5186532    
   1567000   1691.649      -37.258215     -38.788854     -38.788854      1.5306396    
   1568000   1563.6596     -36.816344     -38.231176     -38.231176      1.4148321    
   1569000   1508.8397     -36.919399     -38.284629     -38.284629      1.3652299    
   1570000   1528.3378     -37.91307      -39.295942     -39.295942      1.3828722    
   1571000   1523.8983     -36.957355     -38.33621      -38.33621       1.3788553    
   1572000   1613.2236     -36.377432     -37.83711      -37.83711       1.4596786    
   1573000   1543.8793     -37.136791     -38.533726     -38.533726      1.3969344    
   1574000   1609.4422     -37.652634     -39.108891     -39.108891      1.4562571    
   1575000   1643.0617     -37.938699     -39.425376     -39.425376      1.4866768    
   1576000   1580.2182     -36.700603     -38.130418     -38.130418      1.4298146    
   1577000   1555.0131     -37.913965     -39.320973     -39.320973      1.4070085    
   1578000   1656.8794     -37.868469     -39.367649     -39.367649      1.4991793    
   1579000   1545.0557     -36.785408     -38.183407     -38.183407      1.3979988    
   1580000   1563.2741     -37.884003     -39.298486     -39.298486      1.4144833    
   1581000   1680.7087     -37.502566     -39.023306     -39.023306      1.5207405    
   1582000   1564.1881     -36.52404      -37.93935      -37.93935       1.4153103    
   1583000   1489.1295     -37.662042     -39.009438     -39.009438      1.3473957    
   1584000   1594.627      -37.814577     -39.257429     -39.257429      1.442852     
   1585000   1576.1864     -37.427069     -38.853236     -38.853236      1.4261666    
   1586000   1642.3866     -38.06068      -39.546746     -39.546746      1.4860659    
   1587000   1530.911      -37.416441     -38.801641     -38.801641      1.3852004    
   1588000   1687.663      -36.685854     -38.212887     -38.212887      1.527033     
   1589000   1483.3723     -36.555925     -37.898111     -37.898111      1.3421864    
   1590000   1525.5309     -35.58777      -36.968102     -36.968102      1.3803324    
   1591000   1615.2174     -37.498854     -38.960336     -38.960336      1.4614827    
   1592000   1496.4085     -37.142751     -38.496733     -38.496733      1.3539818    
   1593000   1531.5282     -37.814151     -39.19991      -39.19991       1.3857589    
   1594000   1585.3978     -37.202465     -38.636966     -38.636966      1.4345012    
   1595000   1537.1388     -37.511171     -38.902007     -38.902007      1.3908354    
   1596000   1486.3256     -37.642309     -38.987167     -38.987167      1.3448587    
   1597000   1628.1555     -36.587111     -38.0603       -38.0603        1.4731893    
   1598000   1620.0441     -37.613183     -39.079033     -39.079033      1.46585      
   1599000   1541.9593     -37.90694      -39.302137     -39.302137      1.3951972    
   1600000   1564.0445     -36.946842     -38.362022     -38.362022      1.4151803    
   1601000   1323.8473     -37.452162     -38.650007     -38.650007      1.1978449    
   1602000   1466.7579     -38.173088     -39.500241     -39.500241      1.3271534    
   1603000   1553.7409     -36.127669     -37.533527     -37.533527      1.4058574    
   1604000   1371.8721     -37.444763     -38.686061     -38.686061      1.2412987    
   1605000   1454.9817     -38.112292     -39.42879      -39.42879       1.316498     
   1606000   1537.2059     -37.935456     -39.326352     -39.326352      1.3908962    
   1607000   1442.2841     -36.998327     -38.303336     -38.303336      1.305009     
   1608000   1375.019      -37.533012     -38.777158     -38.777158      1.2441461    
   1609000   1453.3167     -37.983672     -39.298664     -39.298664      1.3149915    
   1610000   1483.7602     -36.905635     -38.248172     -38.248172      1.3425374    
   1611000   1335.4468     -36.89476      -38.103101     -38.103101      1.2083403    
   1612000   1415.2119     -37.763384     -39.043898     -39.043898      1.2805135    
   1613000   1490.8121     -37.58947      -38.938388     -38.938388      1.3489182    
   1614000   1387.8437     -36.749351     -38.005101     -38.005101      1.2557501    
   1615000   1454.7158     -37.920448     -39.236706     -39.236706      1.3162574    
   1616000   1541.4091     -37.756436     -39.151135     -39.151135      1.3946993    
   1617000   1491.4318     -36.624107     -37.973586     -37.973586      1.3494788    
   1618000   1403.4961     -38.206465     -39.476378     -39.476378      1.2699127    
   1619000   1447.4583     -37.377139     -38.68683      -38.68683       1.3096907    
   1620000   1486.1969     -37.619025     -38.963768     -38.963768      1.3447422    
   1621000   1449.9885     -37.37459      -38.68657      -38.68657       1.31198      
   1622000   1420.5237     -37.503614     -38.788934     -38.788934      1.2853197    
   1623000   1391.4522     -37.578995     -38.83801      -38.83801       1.2590152    
   1624000   1471.5865     -37.016555     -38.348078     -38.348078      1.3315224    
   1625000   1441.1748     -38.110398     -39.414404     -39.414404      1.3040052    
   1626000   1366.0795     -37.575056     -38.811113     -38.811113      1.2360574    
   1627000   1446.7216     -36.286993     -37.596017     -37.596017      1.3090241    
   1628000   1498.0202     -38.349466     -39.704906     -39.704906      1.3554401    
   1629000   1310.5213     -37.519299     -38.705086     -38.705086      1.1857873    
   1630000   1458.7704     -36.988193     -38.308119     -38.308119      1.3199261    
   1631000   1350.6806     -37.447455     -38.669579     -38.669579      1.2221242    
   1632000   1434.933      -37.76983      -39.068188     -39.068188      1.2983575    
   1633000   1348.1467     -37.82467      -39.044501     -39.044501      1.2198314    
   1634000   1417.2079     -38.335433     -39.617753     -39.617753      1.2823195    
   1635000   1350.6607     -37.377196     -38.599302     -38.599302      1.2221061    
   1636000   1399.7354     -37.946452     -39.212962     -39.212962      1.26651      
   1637000   1494.508      -36.798654     -38.150916     -38.150916      1.3522623    
   1638000   1374.5495     -38.196786     -39.440507     -39.440507      1.2437213    
   1639000   1395.7411     -38.040565     -39.303461     -39.303461      1.2628959    
   1640000   1354.1716     -36.235458     -37.460741     -37.460741      1.2252829    
   1641000   1374.8164     -38.104253     -39.348216     -39.348216      1.2439628    
   1642000   1411.5064     -37.926677     -39.203837     -39.203837      1.2771606    
   1643000   1426.6261     -37.651225     -38.942067     -38.942067      1.2908413    
   1644000   1373.8593     -37.919473     -39.16257      -39.16257       1.2430968    
   1645000   1432.1706     -37.559876     -38.855734     -38.855734      1.2958581    
   1646000   1328.5234     -37.8546       -39.056676     -39.056676      1.2020759    
   1647000   1333.6986     -37.777071     -38.98383      -38.98383       1.2067585    
   1648000   1338.6452     -37.589446     -38.80068      -38.80068       1.2112343    
   1649000   1362.5143     -37.998287     -39.231119     -39.231119      1.2328316    
   1650000   1389.6836     -37.522619     -38.780034     -38.780034      1.2574149    
   1651000   1320.1992     -37.441864     -38.636408     -38.636408      1.194544     
   1652000   1390.2583     -38.166703     -39.424638     -39.424638      1.2579349    
   1653000   1381.5406     -38.154377     -39.404424     -39.404424      1.250047     
   1654000   1353.4659     -37.06021      -38.284855     -38.284855      1.2246444    
   1655000   1312.6859     -38.253565     -39.441311     -39.441311      1.1877458    
   1656000   1370.2447     -38.544117     -39.783944     -39.783944      1.2398262    
   1657000   1389.8462     -37.907763     -39.165325     -39.165325      1.257562     
   1658000   1338.3568     -37.403258     -38.614232     -38.614232      1.2109733    
   1659000   1332.9055     -38.433682     -39.639723     -39.639723      1.2060409    
   1660000   1335.3829     -38.595658     -39.80394      -39.80394       1.2082825    
   1661000   1297.5241     -37.372547     -38.546574     -38.546574      1.1740271    
   1662000   1272.2795     -37.776451     -38.927636     -38.927636      1.1511852    
   1663000   1311.287      -38.608396     -39.794876     -39.794876      1.1864801    
   1664000   1244.2676     -37.206024     -38.331863     -38.331863      1.1258395    
   1665000   1299.8123     -38.032934     -39.209031     -39.209031      1.1760975    
   1666000   1275.487      -38.413819     -39.567906     -39.567906      1.1540875    
   1667000   1362.1909     -37.144004     -38.376543     -38.376543      1.232539     
   1668000   1256.908      -37.545124     -38.682401     -38.682401      1.1372768    
   1669000   1277.693      -38.484271     -39.640354     -39.640354      1.1560835    
   1670000   1302.7493     -37.248211     -38.426966     -38.426966      1.1787549    
   1671000   1253.3071     -37.321902     -38.455921     -38.455921      1.1340186    
   1672000   1406.4439     -38.567102     -39.839682     -39.839682      1.27258      
   1673000   1245.6897     -38.320863     -39.447989     -39.447989      1.1271262    
   1674000   1264.9007     -37.572408     -38.716917     -38.716917      1.1445088    
   1675000   1317.2705     -37.738579     -38.930473     -38.930473      1.191894     
   1676000   1406.5968     -38.073581     -39.346299     -39.346299      1.2727184    
   1677000   1269.3398     -38.435821     -39.584346     -39.584346      1.1485253    
   1678000   1338.1231     -37.329427     -38.540188     -38.540188      1.2107619    
   1679000   1288.9053     -38.134305     -39.300533     -39.300533      1.1662286    
   1680000   1309.5587     -38.503349     -39.688265     -39.688265      1.1849162    
   1681000   1381.2916     -37.502461     -38.752283     -38.752283      1.2498217    
   1682000   1232.0633     -37.937847     -39.052644     -39.052644      1.1147967    
   1683000   1214.2631     -38.625523     -39.724213     -39.724213      1.0986907    
   1684000   1252.0617     -37.627077     -38.759969     -38.759969      1.1328917    
   1685000   1210.7239     -38.001931     -39.09742      -39.09742       1.0954884    
   1686000   1191.0301     -38.063398     -39.141067     -39.141067      1.0776691    
   1687000   1288.1339     -37.536663     -38.702193     -38.702193      1.1655306    
   1688000   1186.9841     -37.905059     -38.979067     -38.979067      1.0740081    
   1689000   1238.3964     -38.103408     -39.223935     -39.223935      1.1205271    
   1690000   1252.2312     -38.520217     -39.653262     -39.653262      1.1330451    
   1691000   1240.5334     -37.976299     -39.09876      -39.09876       1.1224607    
   1692000   1156.0065     -37.900615     -38.946594     -38.946594      1.045979     
   1693000   1200.3668     -38.392021     -39.478138     -39.478138      1.0861171    
   1694000   1265.2522     -37.744291     -38.889118     -38.889118      1.1448268    
   1695000   1230.0248     -37.308919     -38.421871     -38.421871      1.1129523    
   1696000   1242.5528     -38.46389      -39.588178     -39.588178      1.1242879    
   1697000   1266.5426     -37.888038     -39.034033     -39.034033      1.1459944    
   1698000   1205.9165     -37.571518     -38.662656     -38.662656      1.0911386    
   1699000   1215.0415     -38.357468     -39.456863     -39.456863      1.0993951    
   1700000   1255.4373     -37.836942     -38.972888     -38.972888      1.135946     
   1701000   1251.3709     -37.093685     -38.225952     -38.225952      1.1322667    
   1702000   1111.3347     -38.3393       -39.344859     -39.344859      1.005559     
   1703000   1243.3319     -37.641767     -38.76676      -38.76676       1.1249928    
   1704000   1061.9259     -37.704081     -38.664934     -38.664934      0.96085289   
   1705000   1191.4003     -38.606234     -39.684238     -39.684238      1.078004     
   1706000   1146.3741     -38.468937     -39.5062       -39.5062        1.0372634    
   1707000   1185.7243     -38.012254     -39.085123     -39.085123      1.0728683    
   1708000   1166.6857     -37.927085     -38.982726     -38.982726      1.0556417    
   1709000   1150.9473     -38.453616     -39.495018     -39.495018      1.0414013    
   1710000   1190.3547     -37.856086     -38.933144     -38.933144      1.077058     
   1711000   1160.1772     -38.103755     -39.153508     -39.153508      1.0497527    
   1712000   1164.6845     -38.195774     -39.249605     -39.249605      1.053831     
   1713000   1239.6719     -38.310575     -39.432256     -39.432256      1.1216812    
   1714000   1058.2861     -37.866594     -38.824153     -38.824153      0.95755949   
   1715000   1137.512      -38.056977     -39.086222     -39.086222      1.0292448    
   1716000   1174.4184     -38.127476     -39.190114     -39.190114      1.0626384    
   1717000   1123.9927     -38.304546     -39.321559     -39.321559      1.0170122    
   1718000   1194.7079     -38.52958      -39.610577     -39.610577      1.0809968    
   1719000   1127.9058     -37.896057     -38.91661      -38.91661       1.0205529    
   1720000   1080.6634     -38.2118       -39.189607     -39.189607      0.97780695   
   1721000   1140.2378     -37.84468      -38.876391     -38.876391      1.0317111    
   1722000   1134.1382     -38.482761     -39.508953     -39.508953      1.0261921    
   1723000   1137.4793     -38.731916     -39.761132     -39.761132      1.0292152    
   1724000   1093.7158     -36.801375     -37.790992     -37.790992      0.98961703   
   1725000   1119.6061     -38.567255     -39.580298     -39.580298      1.0130432    
   1726000   1175.6692     -38.430925     -39.494695     -39.494695      1.0637702    
   1727000   1135.6392     -37.413427     -38.440978     -38.440978      1.0275502    
   1728000   1036.6315     -38.553167     -39.491133     -39.491133      0.937966     
   1729000   1080.4848     -37.775273     -38.752918     -38.752918      0.97764532   
   1730000   1156.7364     -37.851817     -38.898457     -38.898457      1.0466394    
   1731000   1179.3643     -38.648926     -39.71604      -39.71604       1.0671136    
   1732000   1133.8625     -36.96789      -37.993833     -37.993833      1.0259427    
   1733000   1085.1241     -38.469113     -39.450956     -39.450956      0.98184311   
   1734000   1156.8125     -37.905358     -38.952066     -38.952066      1.0467082    
   1735000   1085.415      -37.849578     -38.831684     -38.831684      0.98210631   
   1736000   1169.4105     -38.746376     -39.804483     -39.804483      1.0581072    
   1737000   1021.9793     -37.902249     -38.826957     -38.826957      0.92470832   
   1738000   1077.9455     -37.795576     -38.770923     -38.770923      0.97534772   
   1739000   1100.7232     -38.698047     -39.694004     -39.694004      0.99595752   
   1740000   1146.3855     -36.431442     -37.468716     -37.468716      1.0372737    
   1741000   1093.3965     -38.424621     -39.413949     -39.413949      0.98932813   
   1742000   1132.2139     -37.867286     -38.891737     -38.891737      1.024451     
   1743000   1070.517      -37.801996     -38.770622     -38.770622      0.96862628   
   1744000   1055.9354     -38.598685     -39.554118     -39.554118      0.95543257   
   1745000   1044.4529     -37.639079     -38.584122     -38.584122      0.94504295   
   1746000   1074.4623     -38.564684     -39.53688      -39.53688       0.97219609   
   1747000   1019.3407     -38.235883     -39.158204     -39.158204      0.9223209    
   1748000   1101.4509     -37.755212     -38.751828     -38.751828      0.99661596   
   1749000   972.36108     -37.687548     -38.56736      -38.56736       0.87981274   
   1750000   991.79827     -38.331327     -39.228727     -39.228727      0.89739992   
   1751000   1052.4949     -38.420562     -39.372882     -39.372882      0.9523195    
   1752000   1017.8595     -38.208103     -39.129083     -39.129083      0.92098068   
   1753000   1083.5875     -38.120459     -39.100911     -39.100911      0.98045277   
   1754000   1064.0699     -38.531407     -39.4942       -39.4942        0.96279281   
   1755000   1031.6162     -38.047954     -38.981382     -38.981382      0.93342798   
   1756000   1042.6722     -38.536409     -39.47984      -39.47984       0.94343167   
   1757000   1011.9087     -38.053866     -38.969462     -38.969462      0.91559623   
   1758000   1049.784      -38.393376     -39.343243     -39.343243      0.9498666    
   1759000   947.64509     -38.471675     -39.329124     -39.329124      0.8574492    
   1760000   1020.9113     -38.69761      -39.621352     -39.621352      0.92374201   
   1761000   1048.4534     -38.057732     -39.006395     -39.006395      0.94866271   
   1762000   1021.0885     -37.976922     -38.900824     -38.900824      0.92390234   
   1763000   974.94284     -38.424849     -39.306998     -39.306998      0.88214877   
   1764000   983.71587     -38.732613     -39.6227       -39.6227        0.89008679   
   1765000   1002.8202     -38.024096     -38.931469     -38.931469      0.90737282   
   1766000   986.43007     -38.48331      -39.375853     -39.375853      0.89254266   
   1767000   994.56724     -38.926718     -39.826623     -39.826623      0.89990534   
   1768000   1116.7417     -37.268731     -38.279182     -38.279182      1.0104514    
   1769000   958.56472     -38.717207     -39.584536     -39.584536      0.8673295    
   1770000   1011.5776     -38.815876     -39.731173     -39.731173      0.91529665   
   1771000   976.3706      -37.862951     -38.746392     -38.746392      0.88344064   
   1772000   1022.6263     -38.843376     -39.768669     -39.768669      0.92529381   
   1773000   954.57447     -38.552457     -39.416176     -39.416176      0.86371904   
   1774000   1002.4757     -37.970941     -38.878002     -38.878002      0.90706111   
   1775000   964.81832     -38.116428     -38.989416     -38.989416      0.87298789   
   1776000   995.0612      -39.087666     -39.988019     -39.988019      0.90035229   
   1777000   1016.1888     -38.034083     -38.953552     -38.953552      0.919469     
   1778000   927.31684     -38.251808     -39.090864     -39.090864      0.83905576   
   1779000   949.69582     -38.953292     -39.812596     -39.812596      0.85930473   
   1780000   991.05056     -38.022143     -38.918867     -38.918867      0.89672338   
   1781000   894.56096     -38.292776     -39.102194     -39.102194      0.80941755   
   1782000   996.15816     -38.805977     -39.707322     -39.707322      0.90134484   
   1783000   911.77724     -38.217864     -39.042859     -39.042859      0.8249952    
   1784000   892.88921     -38.654946     -39.462851     -39.462851      0.80790492   
   1785000   962.4235      -38.627442     -39.498263     -39.498263      0.87082101   
   1786000   899.68263     -37.97948      -38.793532     -38.793532      0.81405175   
   1787000   958.02904     -38.87231      -39.739155     -39.739155      0.86684481   
   1788000   923.06235     -37.776296     -38.611503     -38.611503      0.83520621   
   1789000   970.93636     -38.340935     -39.219458     -39.219458      0.87852362   
   1790000   893.40794     -38.733569     -39.541943     -39.541943      0.80837427   
   1791000   904.62923     -38.28111      -39.099638     -39.099638      0.81852754   
   1792000   947.32034     -38.22832      -39.085475     -39.085475      0.85715535   
   1793000   897.77809     -38.660404     -39.472732     -39.472732      0.81232848   
   1794000   870.41243     -38.329271     -39.116839     -39.116839      0.78756745   
   1795000   858.81622     -38.722013     -39.499088     -39.499088      0.77707496   
   1796000   906.97325     -38.729126     -39.549774     -39.549774      0.82064846   
   1797000   914.78759     -38.28467      -39.112389     -39.112389      0.82771903   
   1798000   934.35231     -38.78451      -39.629931     -39.629931      0.84542161   
   1799000   915.16269     -38.763277     -39.591336     -39.591336      0.82805844   
   1800000   873.44803     -38.140381     -38.930695     -38.930695      0.79031414   
   1801000   891.63881     -38.91515      -39.721923     -39.721923      0.80677354   
   1802000   887.94536     -38.558819     -39.362251     -39.362251      0.80343162   
   1803000   859.64141     -38.498266     -39.276087     -39.276087      0.77782161   
   1804000   901.44045     -38.980538     -39.79618      -39.79618       0.81564226   
   1805000   854.56828     -38.097434     -38.870665     -38.870665      0.77323134   
   1806000   865.77555     -38.92789      -39.711262     -39.711262      0.78337191   
   1807000   899.84946     -38.521657     -39.335859     -39.335859      0.81420271   
   1808000   885.91341     -38.671633     -39.473227     -39.473227      0.80159307   
   1809000   883.36627     -38.720097     -39.519385     -39.519385      0.79928837   
   1810000   918.08901     -38.288489     -39.119195     -39.119195      0.83070623   
   1811000   832.48565     -38.331483     -39.084734     -39.084734      0.75325051   
   1812000   829.56236     -38.910854     -39.66146      -39.66146       0.75060545   
   1813000   857.15407     -38.142426     -38.917997     -38.917997      0.77557101   
   1814000   813.48627     -38.661446     -39.397506     -39.397506      0.73605947   
   1815000   826.6987      -38.660648     -39.408663     -39.408663      0.74801435   
   1816000   857.93336     -38.034379     -38.810655     -38.810655      0.77627614   
   1817000   897.66203     -38.181557     -38.99378      -38.99378       0.81222347   
   1818000   884.34323     -38.758145     -39.558317     -39.558317      0.80017234   
   1819000   892.87597     -38.619368     -39.427261     -39.427261      0.80789294   
   1820000   834.63823     -38.982519     -39.737718     -39.737718      0.75519821   
   1821000   867.41877     -38.603789     -39.388648     -39.388648      0.78485873   
   1822000   803.36966     -38.678826     -39.405732     -39.405732      0.72690576   
   1823000   808.36298     -38.311594     -39.043018     -39.043018      0.73142381   
   1824000   823.0392      -38.50302      -39.247723     -39.247723      0.74470316   
   1825000   812.60313     -38.716987     -39.452248     -39.452248      0.73526039   
   1826000   793.34044     -38.859174     -39.577005     -39.577005      0.7178311    
   1827000   806.37599     -38.219305     -38.948931     -38.948931      0.72962594   
   1828000   747.15087     -38.541587     -39.217625     -39.217625      0.67603781   
   1829000   785.0872      -39.114782     -39.825145     -39.825145      0.7103634    
   1830000   840.56882     -38.412401     -39.172965     -39.172965      0.76056433   
   1831000   757.7362      -38.468591     -39.154207     -39.154207      0.68561564   
   1832000   753.48318     -39.055471     -39.737239     -39.737239      0.68176742   
   1833000   801.87769     -39.189063     -39.914619     -39.914619      0.72555579   
   1834000   843.3101      -38.150803     -38.913847     -38.913847      0.7630447    
   1835000   801.17799     -38.695578     -39.420501     -39.420501      0.72492269   
   1836000   762.54619     -38.669932     -39.359899     -39.359899      0.68996782   
   1837000   727.02823     -38.428086     -39.085916     -39.085916      0.65783042   
   1838000   734.13174     -38.727897     -39.392155     -39.392155      0.66425782   
   1839000   807.41239     -38.970754     -39.701318     -39.701318      0.7305637    
   1840000   659.77065     -38.676163     -39.273137     -39.273137      0.59697435   
   1841000   790.93344     -38.798042     -39.513695     -39.513695      0.71565319   
   1842000   764.05575     -39.078481     -39.769815     -39.769815      0.6913337    
   1843000   815.71295     -39.063231     -39.801305     -39.801305      0.73807422   
   1844000   793.45522     -38.511102     -39.229037     -39.229037      0.71793496   
   1845000   729.27921     -38.855392     -39.515259     -39.515259      0.65986715   
   1846000   780.70826     -39.265626     -39.972027     -39.972027      0.70640124   
   1847000   813.56228     -38.744641     -39.480769     -39.480769      0.73612825   
   1848000   783.22748     -38.936847     -39.645527     -39.645527      0.70868068   
   1849000   717.35762     -38.470917     -39.119997     -39.119997      0.64908025   
   1850000   729.56665     -39.0975       -39.757627     -39.757627      0.66012724   
   1851000   747.54999     -38.742132     -39.418531     -39.418531      0.67639894   
   1852000   772.02185     -38.683957     -39.382498     -39.382498      0.69854159   
   1853000   772.85039     -39.058527     -39.757818     -39.757818      0.69929128   
   1854000   741.71388     -38.371475     -39.042593     -39.042593      0.6711183    
   1855000   727.25419     -39.202701     -39.860736     -39.860736      0.65803487   
   1856000   723.03259     -38.404825     -39.05904      -39.05904       0.65421508   
   1857000   738.44951     -39.008421     -39.676585     -39.676585      0.66816463   
   1858000   716.19896     -39.087061     -39.735093     -39.735093      0.64803187   
   1859000   735.61065     -38.988137     -39.653733     -39.653733      0.66559598   
   1860000   707.74443     -39.028623     -39.669005     -39.669005      0.64038204   
   1861000   732.26015     -38.848574     -39.511139     -39.511139      0.66256437   
   1862000   684.64513     -39.011377     -39.630859     -39.630859      0.6194813    
   1863000   678.89875     -39.035883     -39.650165     -39.650165      0.61428186   
   1864000   731.68536     -39.067798     -39.729842     -39.729842      0.66204429   
   1865000   742.50843     -38.93687      -39.608707     -39.608707      0.67183723   
   1866000   683.85017     -39.014064     -39.632826     -39.632826      0.61876201   
   1867000   713.20097     -39.060263     -39.705582     -39.705582      0.64531922   
   1868000   680.41815     -38.83292      -39.448577     -39.448577      0.61565664   
   1869000   704.1903      -39.023629     -39.660796     -39.660796      0.63716618   
   1870000   701.87944     -38.980971     -39.616047     -39.616047      0.63507527   
   1871000   651.47896     -38.929197     -39.518668     -39.518668      0.58947186   
   1872000   674.62038     -39.145626     -39.756037     -39.756037      0.6104107    
   1873000   687.49561     -39.065999     -39.68806      -39.68806       0.62206048   
   1874000   681.49756     -39.207104     -39.823738     -39.823738      0.61663331   
   1875000   705.11783     -38.806215     -39.444221     -39.444221      0.63800543   
   1876000   633.91466     -39.114162     -39.687741     -39.687741      0.5735793    
   1877000   653.42932     -39.016673     -39.60791      -39.60791       0.59123658   
   1878000   654.97533     -38.83098      -39.423615     -39.423615      0.59263544   
   1879000   682.43256     -39.261038     -39.878517     -39.878517      0.61747932   
   1880000   691.96624     -38.992862     -39.618968     -39.618968      0.62610559   
   1881000   669.64967     -39.034464     -39.640377     -39.640377      0.60591309   
   1882000   674.73306     -39.295617     -39.906129     -39.906129      0.61051266   
   1883000   673.01237     -38.901187     -39.510143     -39.510143      0.60895574   
   1884000   654.11518     -39.105375     -39.697232     -39.697232      0.59185717   
   1885000   644.75805     -38.945615     -39.529006     -39.529006      0.58339064   
   1886000   629.41721     -39.031396     -39.600905     -39.600905      0.56950992   
   1887000   639.42989     -39.120375     -39.698945     -39.698945      0.57856961   
   1888000   631.04608     -39.081206     -39.65219      -39.65219       0.57098375   
   1889000   663.90765     -39.255811     -39.856528     -39.856528      0.60071759   
   1890000   635.10415     -38.697048     -39.271703     -39.271703      0.57465558   
   1891000   622.57502     -39.193682     -39.757001     -39.757001      0.56331896   
   1892000   636.69238     -39.356646     -39.932739     -39.932739      0.57609264   
   1893000   620.98411     -38.842294     -39.404173     -39.404173      0.56187947   
   1894000   610.42564     -39.271454     -39.82378      -39.82378       0.55232595   
   1895000   640.07997     -39.369938     -39.949096     -39.949096      0.57915781   
   1896000   624.44112     -38.927778     -39.492786     -39.492786      0.56500745   
   1897000   616.61743     -39.124049     -39.681978     -39.681978      0.55792841   
   1898000   613.22068     -39.224796     -39.779651     -39.779651      0.55485496   
   1899000   597.88438     -39.22642      -39.767399     -39.767399      0.54097835   
   1900000   608.47713     -39.325315     -39.875878     -39.875878      0.5505629    
   1901000   603.42375     -39.208236     -39.754227     -39.754227      0.54599049   
   1902000   604.95188     -39.231851     -39.779225     -39.779225      0.54737318   
   1903000   617.54041     -38.814141     -39.372905     -39.372905      0.55876354   
   1904000   576.80387     -39.435861     -39.957766     -39.957766      0.52190426   
   1905000   600.18674     -39.011312     -39.554373     -39.554373      0.54306158   
   1906000   574.01361     -39.265541     -39.784921     -39.784921      0.51937958   
   1907000   573.13393     -39.325394     -39.843978     -39.843978      0.51858363   
   1908000   567.50272     -38.719675     -39.233163     -39.233163      0.51348838   
   1909000   537.99447     -39.410587     -39.897376     -39.897376      0.4867887    
   1910000   567.81938     -39.447118     -39.960893     -39.960893      0.5137749    
   1911000   564.11449     -38.865794     -39.376217     -39.376217      0.51042264   
   1912000   558.81219     -39.451698     -39.957323     -39.957323      0.50562501   
   1913000   562.16935     -39.037919     -39.546582     -39.546582      0.50866264   
   1914000   570.03845     -39.230171     -39.745954     -39.745954      0.51578277   
   1915000   582.57504     -39.202017     -39.729143     -39.729143      0.52712614   
   1916000   547.87939     -39.212886     -39.708619     -39.708619      0.49573279   
   1917000   531.84389     -39.319839     -39.801063     -39.801063      0.48122353   
   1918000   543.11092     -39.279087     -39.770505     -39.770505      0.49141818   
   1919000   556.53317     -39.142874     -39.646437     -39.646437      0.5035629    
   1920000   535.00688     -39.420736     -39.904821     -39.904821      0.48408547   
   1921000   533.44883     -39.325262     -39.807938     -39.807938      0.48267571   
   1922000   532.15635     -39.099119     -39.580625     -39.580625      0.48150625   
   1923000   494.35338     -39.341865     -39.789166     -39.789166      0.44730132   
   1924000   517.36959     -39.414022     -39.882148     -39.882148      0.46812688   
   1925000   515.91345     -39.28963      -39.756439     -39.756439      0.46680933   
   1926000   533.54141     -39.380365     -39.863124     -39.863124      0.48275948   
   1927000   515.24145     -39.332972     -39.799173     -39.799173      0.46620129   
   1928000   509.47296     -39.364477     -39.825459     -39.825459      0.46098184   
   1929000   540.0452      -39.384144     -39.872789     -39.872789      0.48864425   
   1930000   499.30801     -39.190133     -39.641918     -39.641918      0.45178438   
   1931000   517.10619     -39.462251     -39.930139     -39.930139      0.46788855   
   1932000   497.08726     -39.275093     -39.724868     -39.724868      0.449775     
   1933000   509.77107     -39.231433     -39.692685     -39.692685      0.46125158   
   1934000   491.19162     -39.50941      -39.95385      -39.95385       0.4444405    
   1935000   496.98454     -39.285011     -39.734693     -39.734693      0.44968206   
   1936000   507.67765     -39.213111     -39.672468     -39.672468      0.45935741   
   1937000   499.1397      -39.461813     -39.913445     -39.913445      0.45163209   
   1938000   503.10115     -39.335719     -39.790935     -39.790935      0.4552165    
   1939000   473.03412     -39.19586      -39.623871     -39.623871      0.42801121   
   1940000   486.57512     -39.536379     -39.976643     -39.976643      0.4402634    
   1941000   482.53784     -39.288066     -39.724676     -39.724676      0.43661037   
   1942000   467.15909     -39.388979     -39.811674     -39.811674      0.42269536   
   1943000   481.92586     -39.577079     -40.013135     -40.013135      0.43605665   
   1944000   459.6803      -39.29176      -39.707688     -39.707688      0.4159284    
   1945000   483.35794     -39.542907     -39.98026      -39.98026       0.43735242   
   1946000   459.86989     -39.358229     -39.774329     -39.774329      0.41609994   
   1947000   487.73772     -39.228526     -39.669842     -39.669842      0.44131534   
   1948000   449.87302     -39.551241     -39.958295     -39.958295      0.40705456   
   1949000   458.28856     -39.403148     -39.817817     -39.817817      0.41466912   
   1950000   450.83702     -39.231794     -39.63972      -39.63972       0.40792681   
   1951000   456.78677     -39.597249     -40.010559     -40.010559      0.41331027   
   1952000   450.21759     -39.460925     -39.868291     -39.868291      0.40736634   
   1953000   430.07033     -39.421503     -39.810639     -39.810639      0.38913667   
   1954000   428.28996     -39.505616     -39.893142     -39.893142      0.38752576   
   1955000   432.27769     -39.532684     -39.923818     -39.923818      0.39113393   
   1956000   426.63677     -39.697892     -40.083922     -40.083922      0.38602991   
   1957000   423.31233     -39.461934     -39.844955     -39.844955      0.38302189   
   1958000   417.85082     -39.48127      -39.85935      -39.85935       0.3780802    
   1959000   420.39219     -39.710449     -40.090829     -40.090829      0.38037969   
   1960000   439.32449     -39.373763     -39.771273     -39.771273      0.39751004   
   1961000   412.62955     -39.491501     -39.864856     -39.864856      0.37335589   
   1962000   423.49513     -39.619591     -40.002778     -40.002778      0.38318729   
   1963000   417.81555     -39.514209     -39.892258     -39.892258      0.37804829   
   1964000   410.3005      -39.591792     -39.96304      -39.96304       0.37124852   
   1965000   400.94913     -39.481731     -39.844518     -39.844518      0.3627872    
   1966000   406.58192     -39.489476     -39.85736      -39.85736       0.36788387   
   1967000   394.31322     -39.479053     -39.835836     -39.835836      0.35678289   
   1968000   386.51671     -39.606233     -39.955962     -39.955962      0.34972844   
   1969000   371.84565     -39.470938     -39.807391     -39.807391      0.33645376   
   1970000   389.78763     -39.694339     -40.047027     -40.047027      0.35268804   
   1971000   386.33853     -39.403695     -39.753262     -39.753262      0.34956722   
   1972000   394.64476     -39.485221     -39.842304     -39.842304      0.35708287   
   1973000   372.55334     -39.728553     -40.065647     -40.065647      0.33709409   
   1974000   395.28478     -39.557382     -39.915044     -39.915044      0.35766198   
   1975000   365.55017     -39.561892     -39.892649     -39.892649      0.33075747   
   1976000   368.10026     -39.690151     -40.023216     -40.023216      0.33306485   
   1977000   365.44044     -39.572201     -39.902859     -39.902859      0.33065819   
   1978000   355.67067     -39.655699     -39.977517     -39.977517      0.3218183    
   1979000   381.55721     -39.678359     -40.0236       -40.0236        0.34524098   
   1980000   354.5012      -39.681775     -40.002535     -40.002535      0.32076014   
   1981000   356.6221      -39.695736     -40.018415     -40.018415      0.32267917   
   1982000   347.10467     -39.497252     -39.81132      -39.81132       0.3140676    
   1983000   349.19505     -39.595414     -39.911373     -39.911373      0.31595902   
   1984000   348.29533     -39.730514     -40.045659     -40.045659      0.31514494   
   1985000   347.22121     -39.59093      -39.905103     -39.905103      0.31417305   
   1986000   351.67141     -39.535275     -39.853474     -39.853474      0.31819968   
   1987000   342.09506     -39.845547     -40.155082     -40.155082      0.3095348    
   1988000   351.63671     -39.566369     -39.884538     -39.884538      0.31816829   
   1989000   335.87585     -39.622545     -39.926453     -39.926453      0.30390753   
   1990000   332.47149     -39.806468     -40.107295     -40.107295      0.30082719   
   1991000   350.33587     -39.469284     -39.786275     -39.786275      0.31699126   
   1992000   330.58945     -39.759981     -40.059105     -40.059105      0.29912428   
   1993000   342.31576     -39.585257     -39.894991     -39.894991      0.30973449   
   1994000   322.85243     -39.669149     -39.961273     -39.961273      0.29212366   
   1995000   327.43132     -39.650357     -39.946624     -39.946624      0.29626674   
   1996000   328.21339     -39.636638     -39.933613     -39.933613      0.29697437   
   1997000   304.21428     -39.725355     -40.000614     -40.000614      0.27525947   
   1998000   304.63096     -39.775016     -40.050653     -40.050653      0.27563649   
   1999000   319.35063     -39.470144     -39.759099     -39.759099      0.28895516   
   2000000   283.22248     -39.662114     -39.918379     -39.918379      0.25626565   
   2001000   297.16652     -39.837805     -40.106688     -40.106688      0.26888251   
   2002000   299.95244     -39.389571     -39.660974     -39.660974      0.27140327   
   2003000   280.48996     -39.743289     -39.997082     -39.997082      0.25379321   
   2004000   295.69509     -39.813626     -40.081178     -40.081178      0.26755113   
   2005000   264.54424     -39.660944     -39.900309     -39.900309      0.23936519   
   2006000   287.70796     -39.788628     -40.048953     -40.048953      0.26032421   
   2007000   274.72638     -39.859835     -40.108414     -40.108414      0.2485782    
   2008000   257.32533     -39.291964     -39.524798     -39.524798      0.23283337   
   2009000   271.63773     -39.892442     -40.138226     -40.138226      0.24578352   
   2010000   283.38391     -39.81996      -40.076372     -40.076372      0.25641171   
   2011000   267.97572     -39.562251     -39.804721     -39.804721      0.24247007   
   2012000   263.29679     -39.845372     -40.083609     -40.083609      0.23823647   
   2013000   258.64125     -39.819285     -40.053309     -40.053309      0.23402404   
   2014000   263.22004     -39.759755     -39.997922     -39.997922      0.23816702   
   2015000   259.49153     -39.835112     -40.069905     -40.069905      0.23479339   
   2016000   269.14152     -39.670588     -39.914113     -39.914113      0.2435249    
   2017000   235.90402     -39.723262     -39.936712     -39.936712      0.21345092   
   2018000   254.46693     -39.984963     -40.21521      -40.21521       0.23024702   
   2019000   243.13457     -39.735033     -39.955026     -39.955026      0.21999327   
   2020000   239.12305     -39.897206     -40.113569     -40.113569      0.21636356   
   2021000   239.71406     -39.819001     -40.0359       -40.0359        0.21689832   
   2022000   238.4519      -39.897522     -40.113278     -40.113278      0.21575629   
   2023000   236.66141     -39.853339     -40.067475     -40.067475      0.21413622   
   2024000   231.59126     -39.979543     -40.189091     -40.189091      0.20954863   
   2025000   229.91225     -39.799825     -40.007854     -40.007854      0.20802943   
   2026000   221.32161     -39.830453     -40.030709     -40.030709      0.20025644   
   2027000   227.21555     -39.880182     -40.085772     -40.085772      0.2055894    
   2028000   216.41686     -39.861263     -40.057081     -40.057081      0.19581853   
   2029000   209.93055     -39.904767     -40.094716     -40.094716      0.18994957   
   2030000   216.23324     -39.980691     -40.176344     -40.176344      0.19565238   
   2031000   192.95022     -39.572698     -39.747283     -39.747283      0.17458542   
   2032000   196.96245     -39.979903     -40.158119     -40.158119      0.17821577   
   2033000   197.99625     -39.948879     -40.12803      -40.12803       0.17915117   
   2034000   193.25086     -39.716169     -39.891027     -39.891027      0.17485744   
   2035000   193.70004     -39.944858     -40.120122     -40.120122      0.17526387   
   2036000   195.78335     -39.994696     -40.171845     -40.171845      0.17714889   
   2037000   176.08151     -39.813518     -39.97284      -39.97284       0.15932225   
   2038000   189.51708     -39.904589     -40.076069     -40.076069      0.17147903   
   2039000   184.75381     -39.999588     -40.166758     -40.166758      0.16716913   
   2040000   190.12461     -39.900979     -40.073007     -40.073007      0.17202874   
   2041000   177.11909     -39.996851     -40.157112     -40.157112      0.16026107   
   2042000   174.87066     -39.993611     -40.151837     -40.151837      0.15822665   
   2043000   171.74522     -39.942265     -40.097664     -40.097664      0.15539868   
   2044000   158.35679     -39.978971     -40.122256     -40.122256      0.14328455   
   2045000   161.43198     -39.954771     -40.100838     -40.100838      0.14606705   
   2046000   160.09281     -40.037824     -40.182679     -40.182679      0.14485534   
   2047000   149.46288     -39.87327      -40.008507     -40.008507      0.13523716   
   2048000   169.73842     -40.026435     -40.180018     -40.180018      0.15358289   
   2049000   147.04115     -39.999916     -40.132962     -40.132962      0.13304592   
   2050000   152.48092     -39.946691     -40.084659     -40.084659      0.13796794   
   2051000   152.26825     -40.070709     -40.208485     -40.208485      0.13777552   
   2052000   143.73394     -39.898761     -40.028814     -40.028814      0.13005349   
   2053000   139.97416     -40.010443     -40.137095     -40.137095      0.12665156   
   2054000   135.87852     -40.052677     -40.175623     -40.175623      0.12294574   
   2055000   136.9225      -39.988722     -40.112612     -40.112612      0.12389036   
   2056000   135.66251     -40.031625     -40.154375     -40.154375      0.12275029   
   2057000   126.36573     -40.056816     -40.171154     -40.171154      0.11433837   
   2058000   133.09434     -39.987292     -40.107718     -40.107718      0.12042656   
   2059000   118.04865     -40.07436      -40.181173     -40.181173      0.1068129    
   2060000   129.33472     -40.002281     -40.119305     -40.119305      0.11702477   
   2061000   118.09584     -40.118449     -40.225305     -40.225305      0.1068556    
   2062000   114.79607     -40.027721     -40.131591     -40.131591      0.1038699    
   2063000   112.36533     -40.046454     -40.148125     -40.148125      0.10167051   
   2064000   108.91973     -40.098533     -40.197086     -40.197086      0.098552857  
   2065000   108.30235     -40.101481     -40.199475     -40.199475      0.09799424   
   2066000   99.831857     -40.059996     -40.150326     -40.150326      0.090329963  
   2067000   95.044533     -40.091179     -40.177177     -40.177177      0.085998291  
   2068000   97.356248     -40.13318      -40.22127      -40.22127       0.088089979  
   2069000   93.250971     -40.106201     -40.190577     -40.190577      0.084375439  
   2070000   91.617914     -40.092979     -40.175877     -40.175877      0.082897814  
   2071000   86.592143     -40.095903     -40.174253     -40.174253      0.07835039   
   2072000   81.786292     -40.126169     -40.200171     -40.200171      0.074001956  
   2073000   84.573566     -40.127494     -40.204018     -40.204018      0.076523939  
   2074000   80.062933     -40.141065     -40.213508     -40.213508      0.072442625  
   2075000   75.828297     -40.141382     -40.209993     -40.209993      0.068611037  
   2076000   71.821295     -40.131395     -40.19638      -40.19638       0.064985417  
   2077000   68.469671     -40.15339      -40.215343     -40.215343      0.061952797  
   2078000   66.040392     -40.153901     -40.213656     -40.213656      0.059754734  
   2079000   64.404587     -40.162281     -40.220556     -40.220556      0.058274623  
   2080000   59.743174     -40.164355     -40.218411     -40.218411      0.054056879  
   2081000   56.405548     -40.147442     -40.198479     -40.198479      0.051036925  
   2082000   54.592568     -40.178532     -40.227929     -40.227929      0.049396503  
   2083000   52.309234     -40.189959     -40.23729      -40.23729       0.047330494  
   2084000   47.051587     -40.170863     -40.213436     -40.213436      0.042573264  
   2085000   45.076484     -40.193735     -40.234522     -40.234522      0.04078615   
   2086000   42.371955     -40.184278     -40.222617     -40.222617      0.038339036  
   2087000   37.964787     -40.209158     -40.243509     -40.243509      0.034351337  
   2088000   37.543249     -40.212459     -40.246429     -40.246429      0.03396992   
   2089000   33.030495     -40.194894     -40.224781     -40.224781      0.029886686  
   2090000   30.082546     -40.215406     -40.242625     -40.242625      0.02721932   
   2091000   26.770996     -40.22134      -40.245563     -40.245563      0.024222959  
   2092000   24.790039     -40.234334     -40.256764     -40.256764      0.022430548  
   2093000   21.402583     -40.228071     -40.247437     -40.247437      0.019365507  
   2094000   18.166031     -40.234893     -40.25133      -40.25133       0.016437006  
   2095000   15.205159     -40.245301     -40.259059     -40.259059      0.013757947  
   2096000   12.098215     -40.248894     -40.259841     -40.259841      0.010946719  
   2097000   9.4276812     -40.253178     -40.261708     -40.261708      0.0085303641 
   2098000   6.3189272     -40.257623     -40.26334      -40.26334       0.0057174981 
   2099000   3.1474732     -40.265033     -40.26788      -40.26788       0.0028478999 
   2100000   0.24378349    -40.269772     -40.269993     -40.269993      0.00022058042
   2100065   0.039826716   -40.270064     -40.2701       -40.2701        3.6036049e-05
Loop time of 39.7022 on 1 procs for 1000000 steps with 8 atoms

Performance: 217.620 ns/day, 0.110 hours/ns, 25187.550 timesteps/s, 201.500 katom-step/s
96.7% CPU use with 1 MPI tasks x 1 OpenMP threads

MPI task timing breakdown:
Section |  min time  |  avg time  |  max time  |%varavg| %total
---------------------------------------------------------------
Pair    | 32.787     | 32.787     | 32.787     |   0.0 | 82.58
Neigh   | 0.15039    | 0.15039    | 0.15039    |   0.0 |  0.38
Comm    | 1.1453     | 1.1453     | 1.1453     |   0.0 |  2.88
Output  | 1.2657     | 1.2657     | 1.2657     |   0.0 |  3.19
Modify  | 3.5467     | 3.5467     | 3.5467     |   0.0 |  8.93
Other   |            | 0.8069     |            |       |  2.03

Nlocal:              8 ave           8 max           8 min
Histogram: 1 0 0 0 0 0 0 0 0 0
Nghost:             52 ave          52 max          52 min
Histogram: 1 0 0 0 0 0 0 0 0 0
Neighs:              0 ave           0 max           0 min
Histogram: 1 0 0 0 0 0 0 0 0 0
FullNghs:           56 ave          56 max          56 min
Histogram: 1 0 0 0 0 0 0 0 0 0

Total # of neighbors = 56
Ave neighs/atom = 7
Neighbor list builds = 1273
Dangerous builds = 0
write_restart 	./endconf/endconf*3.restart
System init for write_restart ...

Total wall time: 0:01:20
