LAMMPS (7 Feb 2024 - Update 1)
OMP_NUM_THREADS environment is not set. Defaulting to 1 thread. (src/comm.cpp:98)
  using 1 OpenMP thread(s) per MPI task
#============Initialization=================
units 			metal
atom_style 		atomic
boundary 		p p p

############################################
#              CLI Variables               #
############################################
variable 		seed index 200093          #
variable 		N index 100                  #
variable 		iter index 1000000         #
variable 		iterther index 100000      #
variable 		iexport index 1000         #
variable 		tempchauf index 3000       #
variable 		Tdamp index 0.001          #
variable 		timestep index 0.0001      #
variable 		box_size index 50		   #
############################################
############################################

#=========Simulation box definition=========
lattice 		sc 1.0
Lattice spacing in x,y,z = 1 1 1
region 			bigbox block 0 ${box_size} 0 ${box_size} 0 ${box_size}
region 			bigbox block 0 50 0 ${box_size} 0 ${box_size}
region 			bigbox block 0 50 0 50 0 ${box_size}
region 			bigbox block 0 50 0 50 0 50
create_box 		1 bigbox
Created orthogonal box = (0 0 0) to (50 50 50)
  1 by 1 by 1 MPI processor grid

#==================Atoms====================
#region 			safezone block 6 9 6 9 6 9 units box
create_atoms 	1 random ${N} ${seed} bigbox
create_atoms 	1 random 100 ${seed} bigbox
create_atoms 	1 random 100 200093 bigbox
Created 100 atoms
  using lattice units in orthogonal box = (0 0 0) to (50 50 50)
  create_atoms CPU = 0.001 seconds
mass 			* 12.01



#==========Velocity initialization==========
velocity 		all create 0.0000001 1563967 rot yes dist gaussian

#======Pair style for atom interactions=============
pair_style 		airebo 1.8 1 1
pair_coeff 		* * CH.airebo C
Reading airebo potential file CH.airebo with DATE: 2011-10-25

#==============Neighbor selection===================
neighbor 		0.3 bin
neigh_modify 	every 1 delay 0 check yes


#=====================Timestep======================
timestep 		${timestep}
timestep 		0.0001

#===============Define dump command=================
dump 			1 all cfg 100000 ./dump/dump.tensile_*.cfg mass type xs ys zs vx vy vz id

#========System temperature printing info===========
thermo_style 	custom step temp etotal epair pe ke
thermo 			${iexport}
thermo 			1000



#====================CRC Cycle======================

#=============Condensation et chauffe===============
fix 			1 all nve
fix 			2 all temp/berendsen 0.0 ${tempchauf} ${Tdamp}
fix 			2 all temp/berendsen 0.0 3000 ${Tdamp}
fix 			2 all temp/berendsen 0.0 3000 0.001
fix             3 all momentum 1 linear 1 1 1 angular rescale

run 			${iter}
run 			1000000
Neighbor list info ...
  update: every = 1 steps, delay = 0 steps, check = yes
  max neighbors/atom: 2000, page size: 100000
  master list distance cutoff = 8.116371
  ghost atom cutoff = 8.116371
  binsize = 4.0581855, bins = 13 13 13
  1 neighbor lists, perpetual/occasional/extra = 1 0 0
  (1) pair airebo, perpetual
      attributes: full, newton on, ghost
      pair build: full/bin/ghost
      stencil: full/ghost/bin/3d
      bin: standard
Per MPI rank memory allocation (min/avg/max) = 3.899 | 3.899 | 3.899 Mbytes
   Step          Temp          TotEng         E_pair         PotEng         KinEng    
         0   1e-07          49.551895      49.551895      49.551895      1.2796754e-09
      1000   2.9439981     -12.399711     -12.437385     -12.437385      0.03767362   
      2000   5.9702911     -12.350222     -12.426623     -12.426623      0.076400348  
      3000   9.0260406     -12.304031     -12.419535     -12.419535      0.11550402   
      4000   11.937035     -12.263226     -12.415981     -12.415981      0.15275531   
      5000   14.71051      -12.221252     -12.409499     -12.409499      0.18824679   
      6000   17.683156     -12.174535     -12.400822     -12.400822      0.226287     
      7000   21.083332     -12.130303     -12.400101     -12.400101      0.26979823   
      8000   24.435803     -12.077854     -12.390553     -12.390553      0.31269897   
      9000   30.154288     -18.327445     -18.713322     -18.713322      0.38587702   
     10000   26.293961     -18.533726     -18.870203     -18.870203      0.33647736   
     11000   38.449218     -17.887168     -18.379193     -18.379193      0.4920252    
     12000   33.842397     -18.338483     -18.771556     -18.771556      0.43307285   
     13000   54.228312     -23.762693     -24.456639     -24.456639      0.69394638   
     14000   37.993229     -24.382804     -24.868994     -24.868994      0.48619001   
     15000   49.408468     -24.426487     -25.058755     -25.058755      0.63226803   
     16000   63.325554     -29.465028     -30.27539      -30.27539       0.81036156   
     17000   47.61479      -31.149487     -31.758801     -31.758801      0.60931477   
     18000   57.695088     -30.322434     -31.060744     -31.060744      0.73830987   
     19000   54.702784     -30.751177     -31.451195     -31.451195      0.70001809   
     20000   60.578381     -30.382401     -31.157607     -31.157607      0.77520667   
     21000   80.083914     -30.873235     -31.898049     -31.898049      1.0248142    
     22000   62.149854     -35.962213     -36.75753      -36.75753       0.79531641   
     23000   64.235254     -36.476313     -37.298316     -37.298316      0.82200276   
     24000   71.797814     -36.613043     -37.531822     -37.531822      0.91877899   
     25000   76.211039     -36.450075     -37.425329     -37.425329      0.97525394   
     26000   92.623        -39.937574     -41.122848     -41.122848      1.1852738    
     27000   80.474109     -46.53874      -47.568548     -47.568548      1.0298074    
     28000   74.438672     -45.557987     -46.51056      -46.51056       0.9525734    
     29000   96.955396     -45.961958     -47.202672     -47.202672      1.2407144    
     30000   90.817489     -45.974023     -47.136192     -47.136192      1.1621691    
     31000   101.94722     -46.449193     -47.753787     -47.753787      1.3045936    
     32000   150.42564     -57.589226     -59.514186     -59.514186      1.92496      
     33000   94.823511     -59.126592     -60.340025     -60.340025      1.2134332    
     34000   95.763823     -58.963984     -60.189451     -60.189451      1.2254661    
     35000   98.800464     -58.761161     -60.025486     -60.025486      1.2643253    
     36000   116.44896     -63.642695     -65.132864     -65.132864      1.4901687    
     37000   107.86928     -70.351264     -71.731641     -71.731641      1.3803766    
     38000   111.46787     -70.053298     -71.479725     -71.479725      1.4264269    
     39000   105.8515      -70.291059     -71.645615     -71.645615      1.3545556    
     40000   179.43778     -75.366937     -77.663158     -77.663158      2.2962211    
     41000   124.37998     -76.648771     -78.240431     -78.240431      1.59166      
     42000   127.03252     -76.231663     -77.857267     -77.857267      1.625604     
     43000   126.82322     -76.41905      -78.041975     -78.041975      1.6229256    
     44000   110.62053     -81.638002     -83.053586     -83.053586      1.4155838    
     45000   149.9438      -89.491055     -91.409849     -91.409849      1.9187939    
     46000   141.46955     -94.885052     -96.695403     -96.695403      1.8103511    
     47000   130.16422     -93.994843     -95.660522     -95.660522      1.6656796    
     48000   146.75822     -94.766557     -96.644586     -96.644586      1.8780289    
     49000   151.24388     -94.439488     -96.374919     -96.374919      1.9354308    
     50000   155.60093     -95.157297     -97.148484     -97.148484      1.9911868    
     51000   150.65633     -94.412579     -96.340491     -96.340491      1.927912     
     52000   139.37467     -100.26644     -102.04998     -102.04998      1.7835435    
     53000   157.25875     -99.798728     -101.81113     -101.81113      2.0124016    
     54000   148.12777     -100.5714      -102.46695     -102.46695      1.8955547    
     55000   169.74824     -101.86376     -104.03598     -104.03598      2.1722265    
     56000   155.64823     -107.17892     -109.17071     -109.17071      1.9917922    
     57000   180.84497     -106.88984     -109.20407     -109.20407      2.3142287    
     58000   173.24727     -106.55599     -108.77299     -108.77299      2.2170027    
     59000   165.39373     -106.61801     -108.73452     -108.73452      2.1165029    
     60000   188.20094     -107.35911     -109.76748     -109.76748      2.4083611    
     61000   188.34771     -105.97606     -108.3863      -108.3863       2.4102393    
     62000   180.40222     -106.23335     -108.54192     -108.54192      2.3085629    
     63000   187.26021     -106.42826     -108.82458     -108.82458      2.3963229    
     64000   216.30983     -112.60605     -115.37411     -115.37411      2.7680637    
     65000   197.14396     -113.23069     -115.75349     -115.75349      2.5228028    
     66000   189.28294     -112.75984     -115.18205     -115.18205      2.4222072    
     67000   211.37082     -112.7375      -115.44236     -115.44236      2.7048605    
     68000   200.71678     -119.27277     -121.84129     -121.84129      2.5685233    
     69000   204.43274     -118.78128     -121.39735     -121.39735      2.6160755    
     70000   199.0118      -117.831       -120.3777      -120.3777       2.5467051    
     71000   203.53423     -117.37881     -119.98338     -119.98338      2.6045775    
     72000   201.18071     -117.62681     -120.20127     -120.20127      2.5744602    
     73000   229.41609     -118.64836     -121.58414     -121.58414      2.9357814    
     74000   222.04565     -118.66473     -121.50619     -121.50619      2.8414636    
     75000   238.48435     -124.87233     -127.92416     -127.92416      3.0518256    
     76000   240.17035     -124.58669     -127.66009     -127.66009      3.073401     
     77000   233.70901     -125.42265     -128.41337     -128.41337      2.9907167    
     78000   237.08436     -124.50747     -127.54138     -127.54138      3.0339103    
     79000   228.59569     -124.29345     -127.21873     -127.21873      2.9252829    
     80000   246.4469      -124.12664     -127.28036     -127.28036      3.1537204    
     81000   227.04644     -123.64606     -126.55152     -126.55152      2.9054576    
     82000   234.92037     -124.32098     -127.3272      -127.3272       3.0062183    
     83000   248.75697     -124.74078     -127.92406     -127.92406      3.1832819    
     84000   255.53216     -124.19146     -127.46144     -127.46144      3.2699823    
     85000   252.53898     -123.96747     -127.19915     -127.19915      3.2316793    
     86000   277.54251     -129.38418     -132.93582     -132.93582      3.5516434    
     87000   289.47857     -135.0319      -138.73629     -138.73629      3.7043862    
     88000   265.04025     -136.12503     -139.51669     -139.51669      3.391655     
     89000   264.27275     -136.13974     -139.52157     -139.52157      3.3818334    
     90000   259.00188     -137.23572     -140.5501      -140.5501       3.3143835    
     91000   267.33051     -135.32387     -138.74483     -138.74483      3.4209629    
     92000   268.56778     -135.19795     -138.63474     -138.63474      3.4367959    
     93000   303.9601      -135.49039     -139.38009     -139.38009      3.8897027    
     94000   301.44511     -136.40142     -140.25894     -140.25894      3.857519     
     95000   283.64309     -136.22786     -139.85757     -139.85757      3.6297109    
     96000   279.25629     -136.13306     -139.70663     -139.70663      3.5735741    
     97000   284.90025     -136.06474     -139.71054     -139.71054      3.6457985    
     98000   297.87862     -134.86025     -138.67213     -138.67213      3.8118795    
     99000   291.92373     -135.02297     -138.75865     -138.75865      3.7356763    
    100000   291.28057     -135.20057     -138.92801     -138.92801      3.7274459    
    101000   302.10696     -135.86639     -139.73238     -139.73238      3.8659885    
    102000   300.2576      -136.45426     -140.29659     -140.29659      3.8423228    
    103000   303.92459     -136.3839      -140.27315     -140.27315      3.8892483    
    104000   319.96405     -135.27486     -139.36936     -139.36936      4.0945014    
    105000   299.95225     -134.15548     -137.99389     -137.99389      3.8384152    
    106000   311.49968     -134.89613     -138.88232     -138.88232      3.9861849    
    107000   325.02962     -134.2331      -138.39243     -138.39243      4.1593242    
    108000   325.02297     -132.7815      -136.94074     -136.94074      4.1592391    
    109000   347.19087     -134.29731     -138.74022     -138.74022      4.4429163    
    110000   326.79596     -135.46747     -139.6494      -139.6494       4.1819276    
    111000   333.73054     -135.38504     -139.65571     -139.65571      4.2706677    
    112000   340.86703     -134.74199     -139.10399     -139.10399      4.3619917    
    113000   350.1063      -134.09331     -138.57353     -138.57353      4.4802243    
    114000   384.03215     -137.9932      -142.90756     -142.90756      4.9143651    
    115000   309.90997     -136.35963     -140.32547     -140.32547      3.9658418    
    116000   362.27085     -138.42836     -143.06425     -143.06425      4.6358911    
    117000   343.55702     -138.07338     -142.46979     -142.46979      4.3964148    
    118000   367.70048     -138.73101     -143.43639     -143.43639      4.7053727    
    119000   349.5131      -138.13859     -142.61122     -142.61122      4.4726333    
    120000   355.3647      -139.60014     -144.14765     -144.14765      4.5475148    
    121000   360.04645     -139.72122     -144.32865     -144.32865      4.6074259    
    122000   365.42452     -139.8392      -144.51545     -144.51545      4.6762478    
    123000   375.6842      -139.44618     -144.25372     -144.25372      4.8075384    
    124000   378.03674     -139.21354     -144.05118     -144.05118      4.8376433    
    125000   371.88903     -145.30292     -150.06189     -150.06189      4.7589725    
    126000   421.69238     -144.28775     -149.68404     -149.68404      5.3962937    
    127000   395.99655     -144.62723     -149.6947      -149.6947       5.0674706    
    128000   364.21858     -144.12923     -148.79005     -148.79005      4.6608158    
    129000   389.38182     -144.21855     -149.20138     -149.20138      4.9828236    
    130000   395.44474     -142.40856     -147.46897     -147.46897      5.0604092    
    131000   385.23046     -142.28766     -147.21736     -147.21736      4.9296996    
    132000   401.11305     -143.2572      -148.39014     -148.39014      5.1329452    
    133000   366.13166     -149.57245     -154.25775     -154.25775      4.6852969    
    134000   377.98811     -150.44955     -155.28657     -155.28657      4.837021     
    135000   395.98828     -149.82171     -154.88907     -154.88907      5.0673648    
    136000   423.62713     -150.20256     -155.62361     -155.62361      5.4210523    
    137000   412.85741     -150.35437     -155.6376      -155.6376       5.2832348    
    138000   410.12866     -150.62917     -155.87748     -155.87748      5.2483157    
    139000   424.0257      -156.33698     -161.76313     -161.76313      5.4261527    
    140000   430.89373     -155.93858     -161.45262     -161.45262      5.5140412    
    141000   435.13533     -156.85802     -162.42634     -162.42634      5.56832      
    142000   436.78592     -155.28973     -160.87917     -160.87917      5.5894421    
    143000   429.05158     -156.09106     -161.58153     -161.58153      5.4904677    
    144000   372.39708     -161.07444     -165.83991     -165.83991      4.765474     
    145000   447.5158      -161.34594     -167.07269     -167.07269      5.7267498    
    146000   443.15557     -160.7901      -166.46106     -166.46106      5.670953     
    147000   451.27218     -163.08112     -168.85594     -168.85594      5.7748192    
    148000   442.46519     -163.52858     -169.1907      -169.1907       5.6621184    
    149000   440.19904     -163.24517     -168.87829     -168.87829      5.633119     
    150000   437.20926     -162.74598     -168.34084     -168.34084      5.5948595    
    151000   458.03919     -161.40582     -167.26723     -167.26723      5.861415     
    152000   458.38666     -161.40205     -167.26791     -167.26791      5.8658615    
    153000   439.17645     -162.07124     -167.69127     -167.69127      5.6200331    
    154000   472.57244     -161.88653     -167.93392     -167.93392      6.0473934    
    155000   472.76795     -160.89589     -166.94579     -166.94579      6.0498954    
    156000   461.28527     -162.09102     -167.99398     -167.99398      5.9029543    
    157000   456.3932      -161.02342     -166.86377     -166.86377      5.8403516    
    158000   467.39664     -162.58252     -168.56368     -168.56368      5.98116      
    159000   480.94239     -161.32397     -167.47847     -167.47847      6.1545016    
    160000   490.09071     -162.61858     -168.89015     -168.89015      6.2715705    
    161000   493.58727     -162.15119     -168.4675      -168.4675       6.3163151    
    162000   486.67588     -162.58638     -168.81426     -168.81426      6.2278717    
    163000   486.81583     -161.63079     -167.86045     -167.86045      6.2296626    
    164000   494.62617     -161.79112     -168.12073     -168.12073      6.3296096    
    165000   509.07368     -161.76975     -168.28424     -168.28424      6.5144908    
    166000   501.35        -161.89489     -168.31055     -168.31055      6.4156528    
    167000   490.14172     -161.89677     -168.16899     -168.16899      6.2722232    
    168000   498.97701     -161.22817     -167.61345     -167.61345      6.3852862    
    169000   523.17527     -161.28891     -167.98386     -167.98386      6.6949454    
    170000   497.18779     -161.89739     -168.25978     -168.25978      6.36239      
    171000   512.1014      -162.91994     -169.47318     -169.47318      6.5532359    
    172000   508.76694     -161.8539      -168.36447     -168.36447      6.5105656    
    173000   516.23828     -161.54797     -168.15414     -168.15414      6.6061745    
    174000   509.47895     -162.00417     -168.52385     -168.52385      6.519677     
    175000   510.80384     -165.22287     -171.7595      -171.7595       6.5366312    
    176000   555.52745     -166.00458     -173.11353     -173.11353      7.1089483    
    177000   540.43435     -166.54383     -173.45964     -173.45964      6.9158057    
    178000   549.23756     -168.71663     -175.74509     -175.74509      7.0284581    
    179000   536.23275     -172.73555     -179.59759     -179.59759      6.8620388    
    180000   523.07145     -172.09925     -178.79287     -178.79287      6.6936169    
    181000   532.88584     -171.47595     -178.29516     -178.29516      6.8192092    
    182000   545.60949     -172.14122     -179.12326     -179.12326      6.9820306    
    183000   568.81821     -172.2649      -179.54393     -179.54393      7.2790269    
    184000   585.00793     -171.82137     -179.30758     -179.30758      7.4862028    
    185000   557.35078     -171.72153     -178.85381     -178.85381      7.132281     
    186000   555.77933     -171.54934     -178.66151     -178.66151      7.1121715    
    187000   544.61182     -173.25583     -180.2251      -180.2251       6.9692636    
    188000   545.58407     -177.95982     -184.94152     -184.94152      6.9817053    
    189000   567.96921     -177.83233     -185.10049     -185.10049      7.2681624    
    190000   560.47106     -178.67421     -185.84642     -185.84642      7.1722105    
    191000   586.33785     -177.52043     -185.02366     -185.02366      7.5032214    
    192000   582.52347     -185.3525      -192.80691     -192.80691      7.4544097    
    193000   549.18325     -184.5891      -191.61686     -191.61686      7.0277631    
    194000   584.1924      -183.80109     -191.27686     -191.27686      7.4757667    
    195000   597.31824     -183.16371     -190.80744     -190.80744      7.6437347    
    196000   596.94218     -183.24778     -190.8867      -190.8867       7.6389224    
    197000   616.66004     -189.51609     -197.40734     -197.40734      7.891247     
    198000   622.54416     -202.46939     -210.43594     -210.43594      7.9665447    
    199000   616.27367     -198.77443     -206.66074     -206.66074      7.8863028    
    200000   639.89286     -200.30961     -208.49816     -208.49816      8.1885518    
    201000   555.50417     -199.22172     -206.33037     -206.33037      7.1086504    
    202000   620.49539     -199.37352     -207.31385     -207.31385      7.9403271    
    203000   610.31213     -200.3438      -208.15382     -208.15382      7.8100144    
    204000   588.9028      -201.40864     -208.94468     -208.94468      7.5360445    
    205000   611.45171     -202.28025     -210.10484     -210.10484      7.8245973    
    206000   606.43006     -204.1011      -211.86144     -211.86144      7.7603366    
    207000   628.07444     -201.59631     -209.63362     -209.63362      8.0373143    
    208000   640.42881     -202.26206     -210.45747     -210.45747      8.1954102    
    209000   646.55101     -202.95824     -211.232       -211.232        8.2737544    
    210000   682.15985     -207.85347     -216.5829      -216.5829       8.7294321    
    211000   657.36819     -207.41018     -215.82236     -215.82236      8.4121793    
    212000   623.04014     -208.13527     -216.10816     -216.10816      7.9728917    
    213000   671.92521     -208.62031     -217.21877     -217.21877      8.5984618    
    214000   666.48872     -208.29928     -216.82817     -216.82817      8.5288924    
    215000   645.37394     -209.6054      -217.86409     -217.86409      8.2586918    
    216000   633.14615     -215.38075     -223.48296     -223.48296      8.1022157    
    217000   632.65774     -213.29591     -221.39187     -221.39187      8.0959657    
    218000   628.78383     -213.36299     -221.40938     -221.40938      8.0463923    
    219000   660.71953     -212.28058     -220.73564     -220.73564      8.4550655    
    220000   650.39124     -212.15265     -220.47554     -220.47554      8.3228969    
    221000   633.32424     -214.17689     -222.28139     -222.28139      8.1044947    
    222000   671.1731      -216.11394     -224.70277     -224.70277      8.5888372    
    223000   680.5829      -216.40051     -225.10976     -225.10976      8.7092522    
    224000   689.16843     -221.57018     -230.38929     -230.38929      8.8191191    
    225000   685.42275     -220.5787      -229.34989     -229.34989      8.7711866    
    226000   665.87451     -221.76889     -230.28992     -230.28992      8.5210325    
    227000   661.37441     -220.69763     -229.16108     -229.16108      8.4634458    
    228000   672.11585     -219.02436     -227.62526     -227.62526      8.6009015    
    229000   670.10959     -226.38897     -234.9642      -234.9642       8.5752278    
    230000   686.38849     -226.92411     -235.70766     -235.70766      8.7835449    
    231000   695.37926     -224.67322     -233.57181     -233.57181      8.8985976    
    232000   725.18462     -227.14095     -236.42095     -236.42095      9.2800095    
    233000   696.80239     -231.0994      -240.01621     -240.01621      8.916809     
    234000   715.02466     -229.69529     -238.84529     -238.84529      9.1499949    
    235000   701.44338     -230.68936     -239.66556     -239.66556      8.9761986    
    236000   710.24323     -231.97791     -241.06672     -241.06672      9.0888082    
    237000   705.48939     -230.29614     -239.32411     -239.32411      9.0279745    
    238000   691.27114     -230.98628     -239.83231     -239.83231      8.8460269    
    239000   689.92909     -232.99848     -241.82733     -241.82733      8.8288531    
    240000   728.15086     -230.10669     -239.42465     -239.42465      9.3179677    
    241000   720.08261     -230.73308     -239.94781     -239.94781      9.2147203    
    242000   742.7914      -232.42603     -241.93135     -241.93135      9.5053191    
    243000   729.93278     -231.69298     -241.03375     -241.03375      9.3407704    
    244000   713.3861      -231.52725     -240.65628     -240.65628      9.1290267    
    245000   754.24027     -232.57523     -242.22706     -242.22706      9.6518275    
    246000   726.64554     -233.11617     -242.41488     -242.41488      9.2987045    
    247000   741.1173      -232.59152     -242.07542     -242.07542      9.4838961    
    248000   718.89959     -235.14235     -244.34193     -244.34193      9.1995814    
    249000   794.13999     -237.55606     -247.71847     -247.71847      10.162414    
    250000   738.04698     -239.42328     -248.86789     -248.86789      9.4446059    
    251000   751.24752     -236.75682     -246.37035     -246.37035      9.6135299    
    252000   766.22872     -235.31934     -245.12458     -245.12458      9.8052408    
    253000   763.39502     -236.61743     -246.38641     -246.38641      9.7689786    
    254000   784.60473     -237.26823     -247.30862     -247.30862      10.040394    
    255000   767.82064     -238.01699     -247.8426      -247.8426       9.8256122    
    256000   785.90949     -236.88108     -246.93817     -246.93817      10.057091    
    257000   765.08451     -237.27345     -247.06405     -247.06405      9.7905985    
    258000   773.72441     -236.4895      -246.39067     -246.39067      9.9011612    
    259000   776.14943     -236.90156     -246.83375     -246.83375      9.9321936    
    260000   761.61715     -237.39498     -247.14121     -247.14121      9.7462276    
    261000   738.06445     -246.22366     -255.66849     -255.66849      9.4448295    
    262000   822.14958     -245.64949     -256.17033     -256.17033      10.520846    
    263000   785.63074     -246.59896     -256.65249     -256.65249      10.053524    
    264000   786.27424     -244.21819     -254.27995     -254.27995      10.061758    
    265000   768.4615      -248.51432     -258.34814     -258.34814      9.833813     
    266000   845.83095     -252.2564      -263.08029     -263.08029      10.823891    
    267000   819.84205     -253.53999     -264.03131     -264.03131      10.491317    
    268000   810.77149     -254.97554     -265.35078     -265.35078      10.375244    
    269000   832.77309     -253.61745     -264.27425     -264.27425      10.656793    
    270000   798.53157     -249.90678     -260.12539     -260.12539      10.218612    
    271000   824.49202     -254.97707     -265.52789     -265.52789      10.550822    
    272000   794.95357     -255.04863     -265.22146     -265.22146      10.172826    
    273000   870.20178     -252.37578     -263.51154     -263.51154      11.135758    
    274000   854.81574     -252.50584     -263.44471     -263.44471      10.938867    
    275000   874.10595     -259.70511     -270.89083     -270.89083      11.185719    
    276000   822.17578     -259.82127     -270.34245     -270.34245      10.521182    
    277000   821.64449     -259.19331     -269.70769     -269.70769      10.514383    
    278000   820.62925     -260.03555     -270.53694     -270.53694      10.501391    
    279000   832.92472     -259.58736     -270.24609     -270.24609      10.658733    
    280000   844.66686     -260.80208     -271.61107     -271.61107      10.808994    
    281000   854.21983     -263.19209     -274.12333     -274.12333      10.931241    
    282000   802.2834      -264.75538     -275.022       -275.022        10.266624    
    283000   816.02717     -266.13853     -276.58103     -276.58103      10.442499    
    284000   846.92146     -267.84683     -278.68468     -278.68468      10.837846    
    285000   857.03725     -263.88634     -274.85364     -274.85364      10.967295    
    286000   857.76969     -265.31644     -276.29311     -276.29311      10.976668    
    287000   857.2476      -266.24228     -277.21226     -277.21226      10.969987    
    288000   881.57114     -265.4248      -276.70605     -276.70605      11.281249    
    289000   849.47205     -263.91575     -274.78623     -274.78623      10.870485    
    290000   862.72175     -264.25516     -275.2952      -275.2952       11.040038    
    291000   860.42406     -266.53241     -277.54305     -277.54305      11.010635    
    292000   879.1495      -266.21557     -277.46583     -277.46583      11.25026     
    293000   871.40999     -266.33207     -277.48329     -277.48329      11.15122     
    294000   859.71989     -265.11358     -276.1152      -276.1152       11.001624    
    295000   894.57796     -264.86518     -276.31287     -276.31287      11.447694    
    296000   874.52596     -265.64557     -276.83667     -276.83667      11.191094    
    297000   882.27222     -265.82191     -277.11213     -277.11213      11.290221    
    298000   884.17542     -265.09322     -276.40779     -276.40779      11.314576    
    299000   904.87042     -265.25642     -276.83582     -276.83582      11.579405    
    300000   903.93683     -265.92733     -277.49479     -277.49479      11.567458    
    301000   903.11396     -265.8299      -277.38683     -277.38683      11.556928    
    302000   895.99188     -266.01075     -277.47653     -277.47653      11.465788    
    303000   922.58785     -265.91588     -277.72201     -277.72201      11.80613     
    304000   899.76592     -266.10016     -277.61425     -277.61425      11.514083    
    305000   917.2194      -266.76438     -278.50181     -278.50181      11.737431    
    306000   922.50014     -266.32221     -278.12722     -278.12722      11.805008    
    307000   925.51289     -269.87003     -281.71359     -281.71359      11.843561    
    308000   921.89739     -269.92671     -281.724       -281.724        11.797294    
    309000   890.90604     -270.74037     -282.14108     -282.14108      11.400706    
    310000   947.45664     -271.72509     -283.84946     -283.84946      12.12437     
    311000   937.70194     -269.77456     -281.7741      -281.7741       11.999541    
    312000   912.83666     -268.77227     -280.45361     -280.45361      11.681346    
    313000   956.58161     -270.72827     -282.96941     -282.96941      12.24114     
    314000   946.22643     -272.74497     -284.8536      -284.8536       12.108627    
    315000   948.02467     -269.96654     -282.09817     -282.09817      12.131639    
    316000   964.75907     -272.72689     -285.07267     -285.07267      12.345785    
    317000   938.6832      -275.84686     -287.85896     -287.85896      12.012098    
    318000   923.68044     -279.42337     -291.24348     -291.24348      11.820112    
    319000   986.27963     -281.84001     -294.46119     -294.46119      12.621178    
    320000   972.84329     -281.21355     -293.66279     -293.66279      12.449237    
    321000   965.14205     -281.09695     -293.44763     -293.44763      12.350686    
    322000   979.71268     -281.65195     -294.18909     -294.18909      12.537143    
    323000   1018.2638     -278.5089      -291.53937     -291.53937      13.030472    
    324000   930.61766     -285.39801     -297.3069      -297.3069       11.908886    
    325000   964.43551     -284.29585     -296.6375      -296.6375       12.341644    
    326000   986.83316     -287.2698      -299.89806     -299.89806      12.628261    
    327000   958.13896     -288.70156     -300.96263     -300.96263      12.261069    
    328000   981.82946     -288.95119     -301.51542     -301.51542      12.56423     
    329000   956.80975     -286.67359     -298.91765     -298.91765      12.244059    
    330000   970.79963     -286.8531      -299.27619     -299.27619      12.423084    
    331000   1005.3702     -285.10425     -297.96973     -297.96973      12.865476    
    332000   998.85173     -283.44597     -296.22803     -296.22803      12.78206     
    333000   1048.7611     -285.61903     -299.03977     -299.03977      13.420738    
    334000   990.29139     -285.97074     -298.64326     -298.64326      12.672516    
    335000   1016.808      -286.86684     -299.87868     -299.87868      13.011843    
    336000   962.64457     -290.56286     -302.88159     -302.88159      12.318726    
    337000   988.39236     -290.24637     -302.89459     -302.89459      12.648214    
    338000   1017.5228     -297.63113     -310.65211     -310.65211      13.020989    
    339000   990.58239     -294.50383     -307.18007     -307.18007      12.67624     
    340000   1016.4813     -295.74128     -308.74894     -308.74894      13.007661    
    341000   1023.4305     -296.49811     -309.5947      -309.5947       13.096588    
    342000   1009.9574     -294.15494     -307.07912     -307.07912      12.924177    
    343000   1028.6464     -293.66198     -306.82532     -306.82532      13.163335    
    344000   1037.2568     -293.01917     -306.29269     -306.29269      13.273521    
    345000   1033.2781     -296.36102     -309.58363     -309.58363      13.222606    
    346000   1016.6253     -295.23135     -308.24086     -308.24086      13.009505    
    347000   1016.6776     -297.39249     -310.40266     -310.40266      13.010174    
    348000   1052.9812     -297.8555      -311.33024     -311.33024      13.474742    
    349000   1053.1116     -303.68971     -317.16612     -317.16612      13.47641     
    350000   1069.7916     -301.88625     -315.57611     -315.57611      13.689861    
    351000   1014.9808     -301.57237     -314.56083     -314.56083      12.98846     
    352000   1068.7946     -307.75093     -321.42803     -321.42803      13.677102    
    353000   1091.9094     -306.00285     -319.97574     -319.97574      13.972897    
    354000   1072.2435     -307.23166     -320.95289     -320.95289      13.721236    
    355000   1061.8973     -314.3263      -327.91514     -327.91514      13.588839    
    356000   1085.8162     -312.94286     -326.83778     -326.83778      13.894923    
    357000   1088.2715     -312.19958     -326.12592     -326.12592      13.926343    
    358000   1040.8143     -312.90171     -326.22076     -326.22076      13.319044    
    359000   1060.959      -313.8676      -327.44443     -327.44443      13.576831    
    360000   1079.1304     -313.74977     -327.55913     -327.55913      13.809367    
    361000   1091.1586     -311.57793     -325.54122     -325.54122      13.963288    
    362000   1100.48       -314.48058     -328.56315     -328.56315      14.082573    
    363000   1139.4187     -312.55784     -327.1387      -327.1387       14.580861    
    364000   1076.7787     -312.65176     -326.43103     -326.43103      13.779273    
    365000   1092.4243     -313.67747     -327.65696     -327.65696      13.979485    
    366000   1085.3981     -310.61591     -324.50548     -324.50548      13.889573    
    367000   1084.6297     -313.65691     -327.53665     -327.53665      13.87974     
    368000   1111.6732     -314.53193     -328.75773     -328.75773      14.225809    
    369000   1117.4839     -314.01206     -328.31223     -328.31223      14.300167    
    370000   1111.28       -312.95303     -327.1738      -327.1738       14.220777    
    371000   1123.443      -315.01843     -329.39485     -329.39485      14.376424    
    372000   1094.7662     -313.97265     -327.9821      -327.9821       14.009454    
    373000   1151.4165     -313.92219     -328.65659     -328.65659      14.734395    
    374000   1090.6519     -313.48531     -327.44211     -327.44211      13.956805    
    375000   1119.2916     -313.99349     -328.31679     -328.31679      14.3233      
    376000   1147.6361     -314.79741     -329.48343     -329.48343      14.686017    
    377000   1130.281      -313.91928     -328.38321     -328.38321      14.463928    
    378000   1136.3523     -314.05963     -328.60125     -328.60125      14.541621    
    379000   1138.1895     -314.53709     -329.10222     -329.10222      14.565131    
    380000   1164.2646     -313.66489     -328.5637      -328.5637       14.898809    
    381000   1141.6922     -314.65862     -329.26857     -329.26857      14.609955    
    382000   1191.0412     -313.73152     -328.97298     -328.97298      15.241462    
    383000   1139.7243     -314.39328     -328.97805     -328.97805      14.584772    
    384000   1161.3594     -317.58113     -332.44276     -332.44276      14.86163     
    385000   1119.3559     -320.10905     -334.43317     -334.43317      14.324123    
    386000   1149.7461     -320.89962     -335.61264     -335.61264      14.713018    
    387000   1162.5758     -319.52142     -334.39861     -334.39861      14.877197    
    388000   1148.6505     -318.90351     -333.60251     -333.60251      14.698998    
    389000   1147.9153     -320.33705     -335.02664     -335.02664      14.68959     
    390000   1183.882      -319.06498     -334.21483     -334.21483      15.149847    
    391000   1217.5493     -324.61109     -340.19177     -340.19177      15.580679    
    392000   1151.0058     -321.97666     -336.70579     -336.70579      14.729139    
    393000   1194.3105     -323.23448     -338.51778     -338.51778      15.283299    
    394000   1170.8466     -324.4161      -339.39913     -339.39913      14.983037    
    395000   1202.3312     -323.72997     -339.11591     -339.11591      15.385937    
    396000   1190.1375     -324.97989     -340.20979     -340.20979      15.229897    
    397000   1205.3001     -325.3362      -340.76013     -340.76013      15.42393     
    398000   1185.9457     -328.66674     -343.84299     -343.84299      15.176256    
    399000   1201.0477     -325.30021     -340.66973     -340.66973      15.369512    
    400000   1185.0971     -325.54165     -340.70704     -340.70704      15.165397    
    401000   1171.7871     -324.88783     -339.8829      -339.8829       14.995071    
    402000   1210.8279     -323.38284     -338.8775      -338.8775       15.494667    
    403000   1209.7025     -322.8303      -338.31057     -338.31057      15.480266    
    404000   1227.52       -324.53201     -340.24028     -340.24028      15.708272    
    405000   1176.6817     -326.00062     -341.05833     -341.05833      15.057706    
    406000   1244.4015     -332.51747     -348.44177     -348.44177      15.9243      
    407000   1212.9663     -342.66502     -358.18705     -358.18705      15.522032    
    408000   1164.4077     -345.32861     -360.22925     -360.22925      14.90064     
    409000   1233.7731     -343.26523     -359.05352     -359.05352      15.788291    
    410000   1287.9516     -345.0565      -361.5381      -361.5381       16.481601    
    411000   1245.9607     -345.33856     -361.28282     -361.28282      15.944253    
    412000   1236.5883     -344.8517      -360.67602     -360.67602      15.824317    
    413000   1281.241      -343.81032     -360.20605     -360.20605      16.395726    
    414000   1275.751      -344.38457     -360.71004     -360.71004      16.325472    
    415000   1229.3791     -345.29029     -361.02235     -361.02235      15.732062    
    416000   1228.5157     -344.04663     -359.76764     -359.76764      15.721013    
    417000   1268.3048     -345.7034      -361.93359     -361.93359      16.230185    
    418000   1294.8193     -345.79809     -362.36757     -362.36757      16.569485    
    419000   1233.8673     -343.10955     -358.89904     -358.89904      15.789496    
    420000   1221.1301     -344.54773     -360.17423     -360.17423      15.626502    
    421000   1287.2312     -344.66454     -361.13692     -361.13692      16.472381    
    422000   1284.4393     -345.33176     -361.76841     -361.76841      16.436654    
    423000   1247.7841     -344.34328     -360.31086     -360.31086      15.967587    
    424000   1290.6445     -345.50661     -362.02267     -362.02267      16.51606     
    425000   1305.6217     -345.77176     -362.47948     -362.47948      16.707721    
    426000   1275.719      -346.6801      -363.00516     -363.00516      16.325062    
    427000   1293.5331     -347.42327     -363.9763      -363.9763       16.553025    
    428000   1288.5903     -346.64432     -363.13409     -363.13409      16.489774    
    429000   1294.6112     -345.30499     -361.87181     -361.87181      16.566821    
    430000   1262.8142     -349.12005     -365.27997     -365.27997      16.159923    
    431000   1299.8172     -347.90237     -364.53581     -364.53581      16.633441    
    432000   1281.171      -350.04747     -366.4423      -366.4423       16.39483     
    433000   1284.7482     -347.10024     -363.54085     -363.54085      16.440607    
    434000   1271.0223     -351.55741     -367.82237     -367.82237      16.26496     
    435000   1338.9691     -358.63541     -375.76987     -375.76987      17.134458    
    436000   1275.3111     -358.18577     -374.50561     -374.50561      16.319842    
    437000   1313.1933     -360.47051     -377.27512     -377.27512      16.804613    
    438000   1314.9938     -359.97074     -376.79839     -376.79839      16.827653    
    439000   1378.4518     -357.8924      -375.53211     -375.53211      17.63971     
    440000   1321.8146     -357.08791     -374.00285     -374.00285      16.914936    
    441000   1309.6004     -362.25397     -379.01261     -379.01261      16.758635    
    442000   1338.1662     -360.5361      -377.66028     -377.66028      17.124184    
    443000   1287.2515     -363.41233     -379.88497     -379.88497      16.472642    
    444000   1341.8062     -360.37751     -377.54827     -377.54827      17.170764    
    445000   1359.6145     -360.41763     -377.81629     -377.81629      17.398653    
    446000   1337.1726     -363.69026     -380.80173     -380.80173      17.11147     
    447000   1310.471      -362.12251     -378.89228     -378.89228      16.769775    
    448000   1359.9359     -364.57942     -381.98219     -381.98219      17.402766    
    449000   1345.1233     -362.08177     -379.29498     -379.29498      17.213212    
    450000   1317.0757     -360.55886     -377.41316     -377.41316      16.854295    
    451000   1342.3457     -364.72852     -381.90619     -381.90619      17.177668    
    452000   1346.0811     -362.78041     -380.00588     -380.00588      17.225469    
    453000   1342.7463     -362.1942      -379.37699     -379.37699      17.182795    
    454000   1359.932      -363.81023     -381.21295     -381.21295      17.402715    
    455000   1353.5319     -363.96586     -381.28667     -381.28667      17.320815    
    456000   1335.6294     -364.77446     -381.86619     -381.86619      17.091722    
    457000   1389.2976     -368.22768     -386.00618     -386.00618      17.7785      
    458000   1322.3533     -367.36243     -384.28426     -384.28426      16.921831    
    459000   1325.1327     -367.07928     -384.03668     -384.03668      16.957398    
    460000   1370.6338     -369.8945      -387.43417     -387.43417      17.539664    
    461000   1388.4684     -365.83304     -383.60092     -383.60092      17.767889    
    462000   1342.5122     -366.39457     -383.57437     -383.57437      17.179799    
    463000   1380.3104     -372.17609     -389.83958     -389.83958      17.663494    
    464000   1415.3553     -369.48315     -387.5951      -387.5951       18.111954    
    465000   1415.7869     -370.00424     -388.12171     -388.12171      18.117477    
    466000   1398.5372     -370.63737     -388.5341      -388.5341       17.896737    
    467000   1392.2494     -369.75493     -387.57121     -387.57121      17.816273    
    468000   1375.0782     -373.49494     -391.09148     -391.09148      17.596538    
    469000   1448.7815     -371.00126     -389.54096     -389.54096      18.5397      
    470000   1415.266      -371.46005     -389.57086     -389.57086      18.110811    
    471000   1357.1719     -371.36835     -388.73575     -388.73575      17.367395    
    472000   1441.0605     -371.32136     -389.76226     -389.76226      18.440898    
    473000   1407.8607     -372.52736     -390.54341     -390.54341      18.016047    
    474000   1462.7724     -371.33055     -390.04928     -390.04928      18.718739    
    475000   1442.0665     -370.20702     -388.66079     -388.66079      18.453771    
    476000   1444.5299     -372.51593     -391.00122     -391.00122      18.485294    
    477000   1468.8533     -376.34773     -395.14428     -395.14428      18.796554    
    478000   1452.7192     -376.27303     -394.86312     -394.86312      18.590091    
    479000   1431.4734     -372.90232     -391.22053     -391.22053      18.318214    
    480000   1407.0792     -371.85979     -389.86583     -389.86583      18.006046    
    481000   1426.1227     -377.28307     -395.53282     -395.53282      18.249742    
    482000   1405.7834     -375.02042     -393.00989     -393.00989      17.989464    
    483000   1425.8795     -371.77742     -390.02405     -390.02405      18.24663     
    484000   1440.4798     -376.70169     -395.13515     -395.13515      18.433466    
    485000   1460.1642     -374.22814     -392.9135      -392.9135       18.685362    
    486000   1435.8459     -376.34283     -394.717       -394.717        18.374167    
    487000   1464.5172     -374.8917      -393.63277     -393.63277      18.741067    
    488000   1490.7695     -375.49441     -394.57142     -394.57142      19.077011    
    489000   1445.2503     -376.69881     -395.19332     -395.19332      18.494513    
    490000   1467.7271     -381.8752      -400.65734     -400.65734      18.782143    
    491000   1509.433      -378.11469     -397.43054     -397.43054      19.315844    
    492000   1441.0277     -380.44073     -398.88121     -398.88121      18.440478    
    493000   1481.2034     -380.14815     -399.10275     -399.10275      18.954596    
    494000   1465.4688     -379.79787     -398.55111     -398.55111      18.753245    
    495000   1481.9387     -379.67214     -398.63614     -398.63614      18.964005    
    496000   1503.5726     -379.46862     -398.70947     -398.70947      19.240849    
    497000   1479.0098     -379.6139      -398.54043     -398.54043      18.926526    
    498000   1470.3547     -376.19866     -395.01443     -395.01443      18.815767    
    499000   1484.84       -381.10089     -400.10202     -400.10202      19.001132    
    500000   1539.0616     -380.82805     -400.52304     -400.52304      19.694993    
    501000   1449.0297     -380.40987     -398.95275     -398.95275      18.542877    
    502000   1485.0953     -381.04488     -400.04928     -400.04928      19.004399    
    503000   1513.5195     -379.39773     -398.76587     -398.76587      19.368138    
    504000   1513.1031     -382.27966     -401.64247     -401.64247      19.362809    
    505000   1553.1        -387.04957     -406.92421     -406.92421      19.87464     
    506000   1455.7277     -384.63102     -403.25961     -403.25961      18.62859     
    507000   1534.4896     -390.31925     -409.95574     -409.95574      19.636487    
    508000   1484.9291     -392.41454     -411.41682     -411.41682      19.002273    
    509000   1540.7075     -395.07855     -414.7946      -414.7946       19.716055    
    510000   1552.0459     -395.31336     -415.17451     -415.17451      19.86115     
    511000   1458.582      -396.45328     -415.1184      -415.1184       18.665116    
    512000   1553.3395     -393.87866     -413.75636     -413.75636      19.877704    
    513000   1600.9741     -396.40457     -416.89184     -416.89184      20.487272    
    514000   1547.6435     -395.28437     -415.08918     -415.08918      19.804814    
    515000   1562.6396     -398.22165     -418.21837     -418.21837      19.996715    
    516000   1521.1286     -394.69555     -414.16106     -414.16106      19.465509    
    517000   1600.4476     -399.4187      -419.89923     -419.89923      20.480535    
    518000   1550.9823     -403.79073     -423.63827     -423.63827      19.84754     
    519000   1545.1243     -401.79269     -421.56526     -421.56526      19.772576    
    520000   1571.9229     -400.90359     -421.01911     -421.01911      20.115511    
    521000   1615.5428     -399.4659      -420.13961     -420.13961      20.673704    
    522000   1573.7115     -400.48376     -420.62216     -420.62216      20.1384      
    523000   1569.7066     -400.13357     -420.22072     -420.22072      20.087149    
    524000   1536.0922     -403.08119     -422.73818     -422.73818      19.656995    
    525000   1550.779      -399.98194     -419.82688     -419.82688      19.844938    
    526000   1594.3066     -401.95774     -422.35969     -422.35969      20.401949    
    527000   1576.6045     -401.42772     -421.60314     -421.60314      20.17542     
    528000   1609.9913     -401.10571     -421.70837     -421.70837      20.602663    
    529000   1618.4162     -401.2796      -421.99007     -421.99007      20.710474    
    530000   1577.6776     -401.16119     -421.35035     -421.35035      20.189153    
    531000   1605.7661     -403.45649     -424.00508     -424.00508      20.548595    
    532000   1584.1339     -403.06751     -423.33928     -423.33928      20.271772    
    533000   1579.1485     -403.57772     -423.7857      -423.7857       20.207976    
    534000   1593.8705     -399.46971     -419.86608     -419.86608      20.39637     
    535000   1638.7806     -402.43181     -423.40288     -423.40288      20.971073    
    536000   1613.6987     -401.25016     -421.90027     -421.90027      20.650106    
    537000   1585.1618     -405.94747     -426.23239     -426.23239      20.284927    
    538000   1639.351      -403.32968     -424.30805     -424.30805      20.978372    
    539000   1637.9837     -403.92724     -424.88812     -424.88812      20.960875    
    540000   1634.6321     -404.38562     -425.30361     -425.30361      20.917986    
    541000   1633.1947     -404.3341      -425.23369     -425.23369      20.899592    
    542000   1601.2352     -403.59774     -424.08835     -424.08835      20.490614    
    543000   1615.317      -404.99035     -425.66117     -425.66117      20.670815    
    544000   1619.5124     -405.34724     -426.07174     -426.07174      20.724502    
    545000   1635.5055     -408.55152     -429.48068     -429.48068      20.929162    
    546000   1638.0879     -408.64141     -429.60361     -429.60361      20.962209    
    547000   1645.2664     -409.7394      -430.79347     -430.79347      21.054069    
    548000   1602.048      -410.68955     -431.19057     -431.19057      20.501015    
    549000   1628.1246     -406.87388     -427.70859     -427.70859      20.834711    
    550000   1665.8313     -410.32963     -431.64687     -431.64687      21.317234    
    551000   1642.2087     -408.19252     -429.20746     -429.20746      21.014941    
    552000   1662.3819     -409.1689      -430.44199     -430.44199      21.273093    
    553000   1666.1124     -410.1858      -431.50663     -431.50663      21.320831    
    554000   1727.2006     -410.5694      -432.67196     -432.67196      22.102561    
    555000   1732.1296     -413.42711     -435.59275     -435.59275      22.165637    
    556000   1655.0612     -411.17191     -432.35132     -432.35132      21.179412    
    557000   1654.957      -413.30353     -434.48161     -434.48161      21.178078    
    558000   1696.0527     -416.17099     -437.87496     -437.87496      21.70397     
    559000   1694.0374     -414.09818     -435.77636     -435.77636      21.67818     
    560000   1705.5619     -413.51027     -435.33592     -435.33592      21.825656    
    561000   1720.0481     -415.84678     -437.85781     -437.85781      22.011033    
    562000   1722.986      -417.38304     -439.43167     -439.43167      22.048628    
    563000   1694.1802     -419.05427     -440.73428     -440.73428      21.680007    
    564000   1703.3271     -417.25456     -439.05161     -439.05161      21.797058    
    565000   1729.5573     -421.23457     -443.36729     -443.36729      22.13272     
    566000   1710.222      -416.88867     -438.77396     -438.77396      21.88529     
    567000   1716.1854     -418.3069      -440.26851     -440.26851      21.961603    
    568000   1711.4197     -420.38802     -442.28864     -442.28864      21.900617    
    569000   1726.4869     -416.05332     -438.14675     -438.14675      22.093429    
    570000   1769.2263     -423.76576     -446.40611     -446.40611      22.640354    
    571000   1751.212      -422.4375      -444.84733     -444.84733      22.40983     
    572000   1713.4438     -420.79763     -442.72414     -442.72414      21.92652     
    573000   1717.8869     -425.3417      -447.32508     -447.32508      21.983377    
    574000   1704.9744     -422.6163      -444.43444     -444.43444      21.818138    
    575000   1705.8256     -422.42442     -444.25345     -444.25345      21.829031    
    576000   1726.4037     -424.18766     -446.28002     -446.28002      22.092364    
    577000   1745.8672     -424.44477     -446.7862      -446.7862       22.341433    
    578000   1736.2049     -424.57561     -446.7934      -446.7934       22.217787    
    579000   1712.7532     -426.21137     -448.12905     -448.12905      21.917682    
    580000   1763.6293     -423.54291     -446.11164     -446.11164      22.568731    
    581000   1780.7057     -421.53177     -444.31902     -444.31902      22.787253    
    582000   1785.5305     -424.55498     -447.40397     -447.40397      22.848995    
    583000   1694.5251     -431.11308     -452.79751     -452.79751      21.684422    
    584000   1779.5406     -428.4024      -451.17475     -451.17475      22.772343    
    585000   1729.6026     -429.79251     -451.92581     -451.92581      22.1333      
    586000   1752.6007     -429.35151     -451.77911     -451.77911      22.4276      
    587000   1763.6744     -430.64326     -453.21257     -453.21257      22.569308    
    588000   1753.1251     -433.68851     -456.12282     -456.12282      22.434312    
    589000   1776.3367     -436.68461     -459.41595     -459.41595      22.731344    
    590000   1770.9491     -430.54513     -453.20753     -453.20753      22.662401    
    591000   1735.0551     -435.28454     -457.48761     -457.48761      22.203073    
    592000   1746.8417     -443.50799     -465.8619      -465.8619       22.353905    
    593000   1754.0417     -442.42106     -464.8671      -464.8671       22.44604     
    594000   1753.3974     -441.70123     -464.13903     -464.13903      22.437796    
    595000   1795.0118     -442.75698     -465.72731     -465.72731      22.970325    
    596000   1751.4264     -444.79081     -467.20339     -467.20339      22.412573    
    597000   1810.0803     -444.69641     -467.85957     -467.85957      23.163152    
    598000   1827.5582     -442.20509     -465.5919      -465.5919       23.386813    
    599000   1790.1516     -442.7891      -465.69723     -465.69723      22.908131    
    600000   1845.766      -442.48019     -466.10001     -466.10001      23.619814    
    601000   1780.8876     -442.04922     -464.8388      -464.8388       22.789582    
    602000   1833.4078     -445.25984     -468.72151     -468.72151      23.461669    
    603000   1778.4139     -441.95559     -464.71351     -464.71351      22.757926    
    604000   1832.9083     -444.26738     -467.72266     -467.72266      23.455277    
    605000   1787.1087     -444.01991     -466.8891      -466.8891       22.869192    
    606000   1850.081      -443.08951     -466.76454     -466.76454      23.675032    
    607000   1795.3573     -443.60989     -466.58464     -466.58464      22.974746    
    608000   1797.8277     -442.86541     -465.87177     -465.87177      23.006359    
    609000   1853.8044     -451.03456     -474.75724     -474.75724      23.72268     
    610000   1801.1964     -449.10916     -472.15863     -472.15863      23.049468    
    611000   1841.8955     -445.23745     -468.80773     -468.80773      23.570284    
    612000   1799.8469     -448.70689     -471.73909     -471.73909      23.032199    
    613000   1823.3442     -445.00551     -468.3384      -468.3384       23.332888    
    614000   1857.0492     -447.48875     -471.25296     -471.25296      23.764202    
    615000   1864.9519     -448.76718     -472.63251     -472.63251      23.865332    
    616000   1843.3072     -445.48508     -469.07343     -469.07343      23.58835     
    617000   1866.4873     -447.21245     -471.09742     -471.09742      23.884979    
    618000   1839.0173     -448.27767     -471.81113     -471.81113      23.533453    
    619000   1856.4886     -449.68721     -473.44424     -473.44424      23.757028    
    620000   1898.7187     -451.01741     -475.31485     -475.31485      24.297437    
    621000   1848.9372     -454.03887     -477.69926     -477.69926      23.660395    
    622000   1877.1123     -450.5086      -474.52955     -474.52955      24.020945    
    623000   1897.3569     -451.6695      -475.94951     -475.94951      24.28001     
    624000   1866.7131     -448.64949     -472.53736     -472.53736      23.887869    
    625000   1898.4564     -451.50483     -475.79891     -475.79891      24.29408     
    626000   1866.8265     -450.7454      -474.63472     -474.63472      23.88932     
    627000   1863.7431     -452.51143     -476.36129     -476.36129      23.849862    
    628000   1837.2474     -451.93432     -475.44513     -475.44513      23.510804    
    629000   1896.5943     -450.38278     -474.65303     -474.65303      24.270251    
    630000   1886.3921     -448.62633     -472.76603     -472.76603      24.139696    
    631000   1909.9948     -449.91916     -474.36089     -474.36089      24.441735    
    632000   1866.7903     -451.2278      -475.11666     -475.11666      23.888857    
    633000   1851.4787     -449.98755     -473.68047     -473.68047      23.692918    
    634000   1933.5401     -448.4517      -473.19474     -473.19474      24.743038    
    635000   1917.3455     -452.20792     -476.74372     -476.74372      24.5358      
    636000   1919.894      -448.55011     -473.11852     -473.11852      24.568412    
    637000   1976.3238     -451.02689     -476.31742     -476.31742      25.290531    
    638000   1929.5876     -450.08922     -474.78168     -474.78168      24.692459    
    639000   1908.6099     -452.8643      -477.28831     -477.28831      24.424012    
    640000   1934.1345     -450.58675     -475.33739     -475.33739      24.750644    
    641000   1931.3526     -449.55248     -474.26753     -474.26753      24.715044    
    642000   1937.4913     -451.91058     -476.70418     -476.70418      24.7936      
    643000   1914.4644     -451.43829     -475.93722     -475.93722      24.498931    
    644000   1953.3142     -450.21521     -475.21129     -475.21129      24.996083    
    645000   1950.9561     -450.58826     -475.55416     -475.55416      24.965906    
    646000   1943.2217     -453.59393     -478.46086     -478.46086      24.866931    
    647000   1929.9196     -450.51217     -475.20888     -475.20888      24.696707    
    648000   1891.3869     -450.89457     -475.09818     -475.09818      24.203614    
    649000   1964.6946     -451.98149     -477.12321     -477.12321      25.141714    
    650000   1912.6092     -452.67163     -477.14682     -477.14682      24.47519     
    651000   1956.4314     -449.75131     -474.78728     -474.78728      25.035972    
    652000   1961.2321     -450.5094      -475.6068      -475.6068       25.097405    
    653000   1947.1151     -452.25066     -477.16742     -477.16742      24.916754    
    654000   1935.0273     -450.59362     -475.35569     -475.35569      24.76207     
    655000   1999.5525     -449.56617     -475.15396     -475.15396      25.587783    
    656000   1948.7539     -449.71522     -474.65295     -474.65295      24.937725    
    657000   1914.1707     -455.16032     -479.65549     -479.65549      24.495172    
    658000   1957.5018     -454.46436     -479.51403     -479.51403      25.04967     
    659000   1960.3214     -450.74275     -475.8285      -475.8285       25.085751    
    660000   1999.2234     -454.42599     -480.00956     -480.00956      25.583571    
    661000   1974.5245     -454.25982     -479.52733     -479.52733      25.267504    
    662000   2051.2075     -453.43274     -479.68154     -479.68154      26.248799    
    663000   2023.0404     -454.80138     -480.68973     -480.68973      25.888351    
    664000   1956.5262     -455.26206     -480.29925     -480.29925      25.037186    
    665000   2010.4415     -455.79284     -481.51997     -481.51997      25.727127    
    666000   1986.4666     -452.08033     -477.50066     -477.50066      25.420325    
    667000   2002.9507     -455.24684     -480.87811     -480.87811      25.631268    
    668000   1963.0968     -459.05431     -484.17558     -484.17558      25.121267    
    669000   2031.4705     -458.4859      -484.48213     -484.48213      25.99623     
    670000   2051.0196     -460.96923     -487.21562     -487.21562      26.246394    
    671000   2015.4064     -460.55651     -486.34718     -486.34718      25.790661    
    672000   1996.5299     -458.63792     -484.18703     -484.18703      25.549103    
    673000   1991.622      -459.07664     -484.56294     -484.56294      25.486298    
    674000   2020.654      -459.33415     -485.19196     -485.19196      25.857813    
    675000   2015.6676     -459.1718      -484.9658      -484.9658       25.794004    
    676000   2001.0301     -463.90339     -489.51008     -489.51008      25.606691    
    677000   2029.3204     -464.27099     -490.23971     -490.23971      25.968715    
    678000   2097.4129     -470.7141      -497.55418     -497.55418      26.840078    
    679000   2063.8319     -470.47005     -496.8804      -496.8804       26.41035     
    680000   2062.5139     -469.10477     -495.49825     -495.49825      26.393483    
    681000   2027.066      -471.1079      -497.04777     -497.04777      25.939865    
    682000   2058.817      -475.33819     -501.68437     -501.68437      26.346175    
    683000   2060.5951     -471.85331     -498.22223     -498.22223      26.368929    
    684000   2051.0706     -469.719       -495.96605     -495.96605      26.247047    
    685000   2027.3196     -474.64266     -500.58577     -500.58577      25.94311     
    686000   2052.2648     -475.4012      -501.66353     -501.66353      26.262328    
    687000   2090.8989     -476.60822     -503.36494     -503.36494      26.75672     
    688000   2094.7615     -473.84142     -500.64757     -500.64757      26.806148    
    689000   2043.8489     -474.01881     -500.17344     -500.17344      26.154632    
    690000   2059.8845     -473.29548     -499.65531     -499.65531      26.359836    
    691000   2104.412      -475.29342     -502.22307     -502.22307      26.929643    
    692000   2062.5777     -472.71438     -499.10868     -499.10868      26.3943      
    693000   2052.5251     -472.84671     -499.11237     -499.11237      26.265659    
    694000   2120.9421     -481.17799     -508.31917     -508.31917      27.141176    
    695000   2059.4844     -477.64064     -503.99535     -503.99535      26.354716    
    696000   2099.657      -479.88359     -506.75238     -506.75238      26.868795    
    697000   2126.6289     -483.67503     -510.88897     -510.88897      27.213947    
    698000   2064.5228     -484.07855     -510.49774     -510.49774      26.419191    
    699000   2105.8854     -484.68453     -511.63303     -511.63303      26.948498    
    700000   2104.852      -485.14787     -512.08314     -512.08314      26.935274    
    701000   2077.2539     -485.35675     -511.93886     -511.93886      26.582107    
    702000   2149.8417     -488.97993     -516.49092     -516.49092      27.510996    
    703000   2121.4392     -485.58145     -512.72898     -512.72898      27.147536    
    704000   2115.9527     -485.69196     -512.76929     -512.76929      27.077327    
    705000   2153.4893     -483.40689     -510.96456     -510.96456      27.557674    
    706000   2113.4998     -483.91607     -510.96201     -510.96201      27.045938    
    707000   2145.1274     -484.03601     -511.48668     -511.48668      27.450669    
    708000   2102.0323     -487.10491     -514.0041      -514.0041       26.899191    
    709000   2119.1446     -482.66552     -509.78369     -509.78369      27.118173    
    710000   2169.6761     -487.03513     -514.79994     -514.79994      27.764812    
    711000   2129.2527     -484.60792     -511.85544     -511.85544      27.247524    
    712000   2179.467      -487.08515     -514.97525     -514.97525      27.890103    
    713000   2166.9031     -484.0274      -511.75672     -511.75672      27.729326    
    714000   2160.5816     -484.68634     -512.33477     -512.33477      27.648432    
    715000   2131.3818     -484.41372     -511.68849     -511.68849      27.274769    
    716000   2135.3161     -485.74658     -513.07169     -513.07169      27.325115    
    717000   2174.2526     -487.2999      -515.12327     -515.12327      27.823377    
    718000   2133.9455     -486.47033     -513.7779      -513.7779       27.307577    
    719000   2139.9434     -488.28613     -515.67046     -515.67046      27.38433     
    720000   2122.3865     -484.25471     -511.41436     -511.41436      27.159658    
    721000   2144.0789     -484.40185     -511.8391      -511.8391       27.437251    
    722000   2172.439      -486.25561     -514.05577     -514.05577      27.800168    
    723000   2143.7911     -482.46723     -509.9008      -509.9008       27.433568    
    724000   2074.6046     -490.65682     -517.20502     -517.20502      26.548205    
    725000   2210.484      -488.7344      -517.02142     -517.02142      28.287021    
    726000   2134.3437     -489.91624     -517.22891     -517.22891      27.312671    
    727000   2236.7034     -489.81393     -518.43648     -518.43648      28.622544    
    728000   2160.6387     -493.40216     -521.05132     -521.05132      27.649163    
    729000   2224.5375     -489.43142     -517.89828     -517.89828      28.46686     
    730000   2194.2935     -492.5571      -520.63693     -520.63693      28.079835    
    731000   2164.87       -492.55428     -520.25759     -520.25759      27.70331     
    732000   2197.8221     -490.33889     -518.46388     -518.46388      28.12499     
    733000   2220.9787     -494.57344     -522.99476     -522.99476      28.421319    
    734000   2188.0086     -493.95959     -521.959       -521.959        27.999408    
    735000   2215.3609     -489.59402     -517.94345     -517.94345      28.349429    
    736000   2247.4276     -489.54151     -518.30129     -518.30129      28.759779    
    737000   2196.4257     -491.97604     -520.08316     -520.08316      28.10712     
    738000   2263.4975     -493.15189     -522.11731     -522.11731      28.965422    
    739000   2203.924      -494.16781     -522.37089     -522.37089      28.203074    
    740000   2236.2794     -493.19488     -521.812       -521.812        28.617119    
    741000   2225.9513     -499.56107     -528.04603     -528.04603      28.484952    
    742000   2230.5216     -499.27642     -527.81985     -527.81985      28.543437    
    743000   2203.2562     -492.37727     -520.57179     -520.57179      28.194528    
    744000   2226.2947     -496.59023     -525.07958     -525.07958      28.489346    
    745000   2214.0293     -497.28345     -525.61584     -525.61584      28.332389    
    746000   2301.7697     -496.24349     -525.69867     -525.69867      29.455182    
    747000   2274.7867     -494.77751     -523.8874      -523.8874       29.109887    
    748000   2237.4215     -495.20793     -523.83966     -523.83966      28.631734    
    749000   2275.9146     -497.36026     -526.48458     -526.48458      29.12432     
    750000   2208.737      -493.03927     -521.30394     -521.30394      28.264665    
    751000   2258.8838     -500.43069     -529.33707     -529.33707      28.906381    
    752000   2263.3632     -501.72515     -530.68885     -530.68885      28.963703    
    753000   2257.2325     -499.68456     -528.56981     -528.56981      28.885249    
    754000   2227.8282     -495.47316     -523.98213     -523.98213      28.508971    
    755000   2277.1504     -499.22252     -528.36265     -528.36265      29.140134    
    756000   2242.2298     -498.31818     -527.01145     -527.01145      28.693264    
    757000   2285.2853     -500.99325     -530.23748     -530.23748      29.244235    
    758000   2317.7397     -503.82639     -533.48593     -533.48593      29.659546    
    759000   2265.3659     -499.38973     -528.37906     -528.37906      28.989331    
    760000   2282.2559     -503.68311     -532.88858     -532.88858      29.205468    
    761000   2245.9303     -500.65213     -529.39275     -529.39275      28.740618    
    762000   2335.9391     -502.33842     -532.23086     -532.23086      29.892439    
    763000   2323.6144     -498.9563      -528.69103     -528.69103      29.734723    
    764000   2340.3573     -501.60797     -531.55695     -531.55695      29.948977    
    765000   2275.9832     -502.80435     -531.92954     -531.92954      29.125198    
    766000   2348.3859     -500.33418     -530.3859      -530.3859       30.051718    
    767000   2279.3148     -501.93886     -531.10669     -531.10669      29.167832    
    768000   2311.4395     -502.53909     -532.11802     -532.11802      29.578924    
    769000   2315.4681     -501.86339     -531.49387     -531.49387      29.630476    
    770000   2286.8562     -502.91998     -532.18432     -532.18432      29.264337    
    771000   2334.0656     -502.68433     -532.55279     -532.55279      29.868464    
    772000   2324.303      -502.36204     -532.10558     -532.10558      29.743535    
    773000   2312.3814     -504.36465     -533.95563     -533.95563      29.590977    
    774000   2300.9944     -501.17281     -530.61807     -530.61807      29.44526     
    775000   2331.805      -501.53704     -531.37658     -531.37658      29.839535    
    776000   2347.8183     -504.07942     -534.12387     -534.12387      30.044454    
    777000   2361.4382     -504.69681     -534.91556     -534.91556      30.218745    
    778000   2311.4094     -503.00121     -532.57975     -532.57975      29.578538    
    779000   2308.825      -505.69741     -535.24287     -535.24287      29.545467    
    780000   2305.8462     -504.9053      -534.41265     -534.41265      29.507348    
    781000   2330.2726     -501.20569     -531.02561     -531.02561      29.819926    
    782000   2360.5066     -501.42684     -531.63366     -531.63366      30.206823    
    783000   2329.1494     -507.99199     -537.79754     -537.79754      29.805553    
    784000   2368.8228     -507.34597     -537.65922     -537.65922      30.313243    
    785000   2345.7432     -508.61123     -538.62913     -538.62913      30.017899    
    786000   2338.7495     -508.24482     -538.17323     -538.17323      29.928403    
    787000   2381.0837     -509.02972     -539.49987     -539.49987      30.470143    
    788000   2343.4832     -505.64353     -535.63251     -535.63251      29.988979    
    789000   2383.9712     -509.56157     -540.06866     -540.06866      30.507094    
    790000   2299.8562     -512.04139     -541.47208     -541.47208      29.430695    
    791000   2378.4728     -511.70186     -542.13859     -542.13859      30.436732    
    792000   2384.8932     -510.97794     -541.49683     -541.49683      30.518892    
    793000   2332.5056     -510.32849     -540.177       -540.177        29.848501    
    794000   2399.7786     -509.70844     -540.41781     -540.41781      30.709377    
    795000   2362.4922     -510.46286     -540.6951      -540.6951       30.232232    
    796000   2378.3255     -513.13554     -543.57038     -543.57038      30.434848    
    797000   2359.862      -509.39325     -539.59182     -539.59182      30.198575    
    798000   2424.9634     -508.33283     -539.36449     -539.36449      31.031661    
    799000   2419.4825     -508.78301     -539.74453     -539.74453      30.961523    
    800000   2426.225      -510.68595     -541.73376     -541.73376      31.047805    
    801000   2402.9666     -508.3703      -539.12048     -539.12048      30.750173    
    802000   2382.0646     -506.24564     -536.72833     -536.72833      30.482696    
    803000   2418.3254     -506.35701     -537.30373     -537.30373      30.946716    
    804000   2407.1851     -507.73925     -538.54341     -538.54341      30.804157    
    805000   2401.8956     -511.2903      -542.02677     -542.02677      30.736468    
    806000   2433.8502     -507.99626     -539.14164     -539.14164      31.145383    
    807000   2412.0957     -507.54106     -538.40805     -538.40805      30.866996    
    808000   2439.0205     -509.43555     -540.6471      -540.6471       31.211547    
    809000   2490.6222     -512.20301     -544.07489     -544.07489      31.87188     
    810000   2379.018      -513.98017     -544.42388     -544.42388      30.443709    
    811000   2489.9367     -512.83974     -544.70285     -544.70285      31.863108    
    812000   2449.6788     -514.2686      -545.61654     -545.61654      31.347937    
    813000   2481.2697     -515.08408     -546.83628     -546.83628      31.752199    
    814000   2480.5102     -514.39954     -546.14202     -546.14202      31.74248     
    815000   2488.9464     -509.5758      -541.42623     -541.42623      31.850436    
    816000   2448.0249     -514.26902     -545.59579     -545.59579      31.326774    
    817000   2407.6918     -512.86959     -543.68023     -543.68023      30.810641    
    818000   2431.1413     -511.98498     -543.09569     -543.09569      31.110718    
    819000   2419.6056     -512.85488     -543.81798     -543.81798      30.963099    
    820000   2434.1858     -511.63634     -542.78602     -542.78602      31.149677    
    821000   2430.5133     -511.73398     -542.83666     -542.83666      31.102682    
    822000   2486.3591     -513.87352     -545.69084     -545.69084      31.817326    
    823000   2472.0412     -508.93641     -540.57051     -540.57051      31.634104    
    824000   2506.6548     -509.71477     -541.79181     -541.79181      32.077046    
    825000   2461.3892     -512.37355     -543.87134     -543.87134      31.497793    
    826000   2448.7702     -515.60813     -546.94444     -546.94444      31.336311    
    827000   2507.736      -512.39204     -544.48292     -544.48292      32.090882    
    828000   2457.8583     -510.53924     -541.99185     -541.99185      31.452608    
    829000   2498.1388     -511.76493     -543.73299     -543.73299      31.968068    
    830000   2530.8107     -512.00339     -544.38955     -544.38955      32.386162    
    831000   2486.7278     -510.98145     -542.80349     -542.80349      31.822045    
    832000   2505.6643     -507.68796     -539.75234     -539.75234      32.064371    
    833000   2463.4429     -513.49021     -545.01429     -545.01429      31.524074    
    834000   2510.1069     -517.91257     -550.0338      -550.0338       32.121221    
    835000   2532.18       -512.92576     -545.32945     -545.32945      32.403685    
    836000   2480.6215     -512.13157     -543.87547     -543.87547      31.743904    
    837000   2511.4652     -515.04921     -547.18782     -547.18782      32.138603    
    838000   2539.7946     -513.10964     -545.61077     -545.61077      32.501127    
    839000   2579.7376     -515.53433     -548.5466      -548.5466       33.012268    
    840000   2551.3659     -512.4826      -545.1318      -545.1318       32.649203    
    841000   2554.8906     -512.50687     -545.20118     -545.20118      32.694307    
    842000   2565.0492     -511.47324     -544.29754     -544.29754      32.824304    
    843000   2572.8705     -513.53232     -546.45671     -546.45671      32.924392    
    844000   2558.5685     -511.98235     -544.72372     -544.72372      32.741372    
    845000   2499.3094     -515.16803     -547.15108     -547.15108      31.983049    
    846000   2525.4174     -514.77829     -547.09543     -547.09543      32.317146    
    847000   2506.1654     -519.44191     -551.51269     -551.51269      32.070783    
    848000   2473.2945     -516.6994      -548.34955     -548.34955      31.650143    
    849000   2488.6094     -516.56471     -548.41083     -548.41083      31.846124    
    850000   2548.9196     -517.04289     -549.66079     -549.66079      32.617899    
    851000   2601.3324     -520.96141     -554.25002     -554.25002      33.288611    
    852000   2573.4963     -518.00633     -550.93874     -550.93874      32.932401    
    853000   2536.3959     -515.79631     -548.25395     -548.25395      32.457636    
    854000   2565.3147     -521.06862     -553.89633     -553.89633      32.827702    
    855000   2582.1505     -517.16906     -550.2122      -550.2122       33.043145    
    856000   2536.6268     -516.80259     -549.26318     -549.26318      32.46059     
    857000   2609.2623     -518.1392      -551.52929     -551.52929      33.390088    
    858000   2612.0879     -519.5844      -553.01065     -553.01065      33.426248    
    859000   2587.9971     -517.68997     -550.80793     -550.80793      33.117963    
    860000   2559.3419     -517.29996     -550.05123     -550.05123      32.751269    
    861000   2582.1052     -517.40252     -550.44509     -550.44509      33.042566    
    862000   2583.1228     -513.08296     -546.13855     -546.13855      33.055588    
    863000   2628.5012     -517.47476     -551.11105     -551.11105      33.636285    
    864000   2608.0024     -519.31074     -552.68471     -552.68471      33.373966    
    865000   2596.4038     -520.70336     -553.9289      -553.9289       33.225542    
    866000   2598.9028     -516.8563      -550.11382     -550.11382      33.257521    
    867000   2645.613      -517.98929     -551.84455     -551.84455      33.855259    
    868000   2586.9847     -515.11416     -548.21917     -548.21917      33.105008    
    869000   2582.8826     -518.67698     -551.72949     -551.72949      33.052515    
    870000   2608.8907     -516.91769     -550.30303     -550.30303      33.385333    
    871000   2646.6947     -516.5284      -550.3975      -550.3975       33.869102    
    872000   2573.3218     -521.42416     -554.35433     -554.35433      32.930166    
    873000   2608.0451     -523.78578     -557.16029     -557.16029      33.374512    
    874000   2655.6457     -520.15247     -554.13612     -554.13612      33.983646    
    875000   2615.6515     -518.99977     -552.47162     -552.47162      33.471849    
    876000   2582.8322     -520.01238     -553.06425     -553.06425      33.051869    
    877000   2669.1943     -520.31544     -554.47246     -554.47246      34.157023    
    878000   2624.4187     -516.22266     -549.8067      -549.8067       33.584041    
    879000   2625.5089     -520.57346     -554.17146     -554.17146      33.597993    
    880000   2592.0287     -520.02675     -553.1963      -553.1963       33.169555    
    881000   2615.5766     -518.79518     -552.26607     -552.26607      33.470891    
    882000   2626.3412     -519.39756     -553.0062      -553.0062       33.608644    
    883000   2641.8728     -522.43117     -556.23857     -556.23857      33.807397    
    884000   2678.751      -519.94309     -554.22241     -554.22241      34.279318    
    885000   2675.1006     -522.34432     -556.57693     -556.57693      34.232606    
    886000   2702.1866     -522.72929     -557.30851     -557.30851      34.579218    
    887000   2636.612      -520.04038     -553.78046     -553.78046      33.740076    
    888000   2620.0439     -520.08173     -553.60979     -553.60979      33.528059    
    889000   2629.3105     -523.87575     -557.52239     -557.52239      33.64664     
    890000   2692.5063     -522.02225     -556.4776      -556.4776       34.455341    
    891000   2622.7807     -521.30926     -554.87234     -554.87234      33.563081    
    892000   2736.9125     -521.71307     -556.73667     -556.73667      35.023597    
    893000   2702.598      -522.12118     -556.70566     -556.70566      34.584482    
    894000   2703.2165     -522.12335     -556.71575     -556.71575      34.592397    
    895000   2679.0661     -522.68922     -556.97257     -556.97257      34.283351    
    896000   2685.378      -521.08467     -555.4488      -555.4488       34.364123    
    897000   2700.4058     -518.83243     -553.38886     -553.38886      34.556429    
    898000   2662.5412     -524.74027     -558.81215     -558.81215      34.071885    
    899000   2729.8756     -520.9175      -555.85105     -555.85105      34.933548    
    900000   2746.3569     -520.96292     -556.10738     -556.10738      35.144454    
    901000   2707.4431     -518.77319     -553.41967     -553.41967      34.646484    
    902000   2724.6797     -518.23953     -553.10659     -553.10659      34.867057    
    903000   2705.7193     -520.51748     -555.14191     -555.14191      34.624425    
    904000   2710.8994     -520.74942     -555.44013     -555.44013      34.690714    
    905000   2766.4446     -522.49304     -557.89455     -557.89455      35.401512    
    906000   2690.0781     -523.88514     -558.30941     -558.30941      34.424268    
    907000   2757.0423     -516.61043     -551.89162     -551.89162      35.281194    
    908000   2715.4868     -525.98393     -560.73334     -560.73334      34.749418    
    909000   2758.4163     -523.20505     -558.50383     -558.50383      35.298776    
    910000   2760.9913     -523.12938     -558.46111     -558.46111      35.331727    
    911000   2721.5414     -524.72902     -559.55592     -559.55592      34.826897    
    912000   2729.6757     -521.8649      -556.79589     -556.79589      34.930989    
    913000   2717.6102     -521.51582     -556.29241     -556.29241      34.77659     
    914000   2752.7999     -522.15944     -557.38634     -557.38634      35.226904    
    915000   2760.6666     -523.96271     -559.29028     -559.29028      35.327573    
    916000   2765.7864     -521.18134     -556.57443     -556.57443      35.393089    
    917000   2745.3303     -521.61253     -556.74385     -556.74385      35.131318    
    918000   2778.2632     -516.8075      -552.36026     -552.36026      35.552751    
    919000   2779.2022     -521.90356     -557.46833     -557.46833      35.564767    
    920000   2753.1837     -520.05864     -555.29045     -555.29045      35.231816    
    921000   2797.6791     -519.55353     -555.35474     -555.35474      35.801212    
    922000   2752.7188     -523.01022     -558.23608     -558.23608      35.225866    
    923000   2826.7372     -522.43774     -558.61081     -558.61081      36.173061    
    924000   2781.8728     -523.94217     -559.54111     -559.54111      35.598943    
    925000   2801.7458     -521.84152     -557.69477     -557.69477      35.853253    
    926000   2829.009      -522.12946     -558.33159     -558.33159      36.202134    
    927000   2776.9188     -523.19424     -558.72979     -558.72979      35.535548    
    928000   2781.7219     -521.92889     -557.5259      -557.5259       35.597012    
    929000   2791.2478     -521.63723     -557.35615     -557.35615      35.718913    
    930000   2817.8607     -521.17179     -557.23126     -557.23126      36.059471    
    931000   2838.4456     -519.51687     -555.83976     -555.83976      36.322891    
    932000   2798.4674     -522.7036      -558.5149      -558.5149       35.8113      
    933000   2786.1629     -524.36719     -560.02103     -560.02103      35.653843    
    934000   2770.9625     -522.01285     -557.47217     -557.47217      35.459327    
    935000   2841.4766     -523.59705     -559.95873     -559.95873      36.361678    
    936000   2759.5111     -522.09445     -557.40724     -557.40724      35.312786    
    937000   2837.2955     -523.00451     -559.31269     -559.31269      36.308174    
    938000   2833.4489     -523.61077     -559.86972     -559.86972      36.25895     
    939000   2856.3023     -525.08123     -561.63263     -561.63263      36.551399    
    940000   2800.6518     -521.95679     -557.79604     -557.79604      35.839252    
    941000   2774.7615     -524.70089     -560.20883     -560.20883      35.507941    
    942000   2869.2741     -521.41332     -558.13072     -558.13072      36.717396    
    943000   2823.7018     -523.71835     -559.85257     -559.85257      36.134219    
    944000   2830.5857     -522.53628     -558.75859     -558.75859      36.22231     
    945000   2833.0422     -524.06771     -560.32145     -560.32145      36.253746    
    946000   2836.0974     -520.67723     -556.97008     -556.97008      36.292842    
    947000   2839.3991     -523.20873     -559.54383     -559.54383      36.335093    
    948000   2865.7444     -521.61502     -558.28724     -558.28724      36.672228    
    949000   2841.3659     -520.51438     -556.87464     -556.87464      36.360261    
    950000   2866.785      -523.79752     -560.48306     -560.48306      36.685543    
    951000   2870.0357     -524.83956     -561.56671     -561.56671      36.727141    
    952000   2823.9589     -527.3234      -563.46091     -563.46091      36.137508    
    953000   2844.8134     -529.3022      -565.70658     -565.70658      36.404378    
    954000   2874.9179     -521.01228     -557.8019      -557.8019       36.789618    
    955000   2937.4256     -526.50295     -564.09247     -564.09247      37.589514    
    956000   2840.7726     -523.2666      -559.61927     -559.61927      36.352669    
    957000   2870.0566     -522.89381     -559.62121     -559.62121      36.727409    
    958000   2878.808      -522.10139     -558.94079     -558.94079      36.839399    
    959000   2867.7954     -524.83827     -561.53675     -561.53675      36.698474    
    960000   2835.1357     -522.43191     -558.71244     -558.71244      36.280535    
    961000   2888.335      -523.24548     -560.2068      -560.2068       36.961314    
    962000   2920.8062     -524.29675     -561.67359     -561.67359      37.37684     
    963000   2885.4221     -526.57938     -563.50342     -563.50342      36.924038    
    964000   2971.2351     -528.42889     -566.45106     -566.45106      38.022166    
    965000   2924.8935     -527.78977     -565.21892     -565.21892      37.429143    
    966000   2865.7331     -526.20236     -562.87444     -562.87444      36.672083    
    967000   2921.7197     -528.01555     -565.40408     -565.40408      37.388529    
    968000   2918.2003     -528.04388     -565.38737     -565.38737      37.343492    
    969000   2888.1555     -530.22        -567.17902     -567.17902      36.959017    
    970000   2926.8124     -526.14872     -563.60242     -563.60242      37.4537      
    971000   2892.9216     -526.79963     -563.81963     -563.81963      37.020007    
    972000   2879.9665     -525.61835     -562.47258     -562.47258      36.854224    
    973000   2987.1627     -527.32177     -565.54776     -565.54776      38.225987    
    974000   2918.3247     -526.47926     -563.82435     -563.82435      37.345084    
    975000   2915.809      -527.02759     -564.34048     -564.34048      37.312891    
    976000   2931.8518     -525.61197     -563.13016     -563.13016      37.518187    
    977000   2959.2417     -526.02042     -563.88911     -563.88911      37.868689    
    978000   2926.177      -528.11658     -565.56215     -565.56215      37.445569    
    979000   2931.2377     -528.29645     -565.80678     -565.80678      37.510329    
    980000   2940.5341     -526.33679     -563.96609     -563.96609      37.629293    
    981000   2938.3412     -529.34311     -566.94434     -566.94434      37.601231    
    982000   2892.0094     -529.18028     -566.18862     -566.18862      37.008334    
    983000   2969.2846     -528.81043     -566.80764     -566.80764      37.997206    
    984000   2929.9433     -531.44464     -568.9384      -568.9384       37.493764    
    985000   2870.3564     -532.36156     -569.0928      -569.0928       36.731246    
    986000   2945.9895     -527.4942      -565.1933      -565.1933       37.699103    
    987000   2972.7659     -526.91329     -564.95505     -564.95505      38.041756    
    988000   2993.8403     -529.39004     -567.70148     -567.70148      38.311439    
    989000   2968.0016     -528.57103     -566.55182     -566.55182      37.980787    
    990000   2982.1831     -527.18139     -565.34366     -565.34366      38.162264    
    991000   2973.1858     -530.33296     -568.38008     -568.38008      38.047128    
    992000   2962.2442     -528.90599     -566.81311     -566.81311      37.907112    
    993000   2930.9032     -523.84982     -561.35586     -561.35586      37.506049    
    994000   3043.1681     -524.79796     -563.74064     -563.74064      38.942675    
    995000   3014.3272     -521.9482      -560.52181     -560.52181      38.573604    
    996000   2952.1613     -527.90647     -565.68455     -565.68455      37.778082    
    997000   3024.1805     -531.71244     -570.41213     -570.41213      38.699695    
    998000   3010.2391     -527.1243      -565.64559     -565.64559      38.52129     
    999000   2971.2616     -527.73679     -565.75929     -565.75929      38.022505    
   1000000   3071.3668     -526.81639     -566.11992     -566.11992      39.303526    
Loop time of 98.0694 on 1 procs for 1000000 steps with 100 atoms

Performance: 88.101 ns/day, 0.272 hours/ns, 10196.859 timesteps/s, 1.020 Matom-step/s
99.7% CPU use with 1 MPI tasks x 1 OpenMP threads

MPI task timing breakdown:
Section |  min time  |  avg time  |  max time  |%varavg| %total
---------------------------------------------------------------
Pair    | 83.815     | 83.815     | 83.815     |   0.0 | 85.46
Neigh   | 4.1946     | 4.1946     | 4.1946     |   0.0 |  4.28
Comm    | 1.0396     | 1.0396     | 1.0396     |   0.0 |  1.06
Output  | 0.32038    | 0.32038    | 0.32038    |   0.0 |  0.33
Modify  | 7.9446     | 7.9446     | 7.9446     |   0.0 |  8.10
Other   |            | 0.7556     |            |       |  0.77

Nlocal:            100 ave         100 max         100 min
Histogram: 1 0 0 0 0 0 0 0 0 0
Nghost:            116 ave         116 max         116 min
Histogram: 1 0 0 0 0 0 0 0 0 0
Neighs:              0 ave           0 max           0 min
Histogram: 1 0 0 0 0 0 0 0 0 0
FullNghs:         4348 ave        4348 max        4348 min
Histogram: 1 0 0 0 0 0 0 0 0 0

Total # of neighbors = 4348
Ave neighs/atom = 43.48
Neighbor list builds = 27029
Dangerous builds = 0
write_restart 	./endconf/endconf*1.restart
System init for write_restart ...

#==============Constant Temp Phase==================

# Minimize during the constant temperature phase
min_style       sd
minimize        1.0e-5 1.0e-7 500 1000
Per MPI rank memory allocation (min/avg/max) = 6.291 | 6.291 | 6.291 Mbytes
   Step          Temp          TotEng         E_pair         PotEng         KinEng    
   1000000   3071.3668     -526.81639     -566.11992     -566.11992      39.303526    
   1000047   3071.3668     -558.8546      -598.15813     -598.15813      39.303526    
Loop time of 0.0680386 on 1 procs for 47 steps with 100 atoms

88.8% CPU use with 1 MPI tasks x 1 OpenMP threads

Minimization stats:
  Stopping criterion = energy tolerance
  Energy initial, next-to-last, final = 
     -566.119919309779  -598.155182273524  -598.158126718831
  Force two-norm initial, final = 46.808957 2.0487869
  Force max component initial, final = 11.114933 0.66316238
  Final line search alpha, max atom move = 0.057177796 0.037918163
  Iterations, force evaluations = 47 132

MPI task timing breakdown:
Section |  min time  |  avg time  |  max time  |%varavg| %total
---------------------------------------------------------------
Pair    | 0.051723   | 0.051723   | 0.051723   |   0.0 | 76.02
Neigh   | 0.0058088  | 0.0058088  | 0.0058088  |   0.0 |  8.54
Comm    | 0.00024128 | 0.00024128 | 0.00024128 |   0.0 |  0.35
Output  | 0          | 0          | 0          |   0.0 |  0.00
Modify  | 0          | 0          | 0          |   0.0 |  0.00
Other   |            | 0.01027    |            |       | 15.09

Nlocal:            100 ave         100 max         100 min
Histogram: 1 0 0 0 0 0 0 0 0 0
Nghost:            116 ave         116 max         116 min
Histogram: 1 0 0 0 0 0 0 0 0 0
Neighs:              0 ave           0 max           0 min
Histogram: 1 0 0 0 0 0 0 0 0 0
FullNghs:         4408 ave        4408 max        4408 min
Histogram: 1 0 0 0 0 0 0 0 0 0

Total # of neighbors = 4408
Ave neighs/atom = 44.08
Neighbor list builds = 38
Dangerous builds = 0

unfix 			2
fix 			4 all temp/berendsen ${tempchauf} ${tempchauf} ${Tdamp}
fix 			4 all temp/berendsen 3000 ${tempchauf} ${Tdamp}
fix 			4 all temp/berendsen 3000 3000 ${Tdamp}
fix 			4 all temp/berendsen 3000 3000 0.001

run 			${iterther}
run 			100000
Per MPI rank memory allocation (min/avg/max) = 5.166 | 5.166 | 5.166 Mbytes
   Step          Temp          TotEng         E_pair         PotEng         KinEng    
   1000047   3071.3668     -558.8546      -598.15813     -598.15813      39.303526    
   1001000   2996.5221     -533.12816     -571.47392     -571.47392      38.345757    
   1002000   3011.5125     -529.33721     -567.8748      -567.8748       38.537586    
   1003000   2932.4128     -534.42022     -571.94558     -571.94558      37.525366    
   1004000   3035.531      -533.37032     -572.21527     -572.21527      38.844944    
   1005000   3002.6691     -530.65034     -569.07476     -569.07476      38.424419    
   1006000   2991.7818     -533.6373      -571.9224      -571.9224       38.285097    
   1007000   2969.9034     -531.53953     -569.54465     -569.54465      38.005124    
   1008000   2953.0241     -540.07378     -577.8629      -577.8629       37.789124    
   1009000   3055.5336     -533.00702     -572.10793     -572.10793      39.100913    
   1010000   2992.6155     -533.56065     -571.85641     -571.85641      38.295765    
   1011000   3008.672      -541.80559     -580.30682     -580.30682      38.501236    
   1012000   2982.7237     -540.02179     -578.19098     -578.19098      38.169182    
   1013000   3010.1906     -537.22868     -575.74935     -575.74935      38.52067     
   1014000   3048.6901     -544.25619     -583.26953     -583.26953      39.013339    
   1015000   2964.3616     -537.57066     -575.50486     -575.50486      37.934207    
   1016000   3002.3798     -535.78927     -574.20999     -574.20999      38.420717    
   1017000   3062.5508     -541.15778     -580.34849     -580.34849      39.19071     
   1018000   3021.5396     -536.65111     -575.31701     -575.31701      38.665901    
   1019000   2985.1254     -535.12263     -573.32254     -573.32254      38.199916    
   1020000   3019.43       -536.51169     -575.1506      -575.1506       38.638905    
   1021000   2995.4556     -538.22029     -576.5524      -576.5524       38.33211     
   1022000   3012.9052     -531.68411     -570.23952     -570.23952      38.555408    
   1023000   3003.6488     -537.65451     -576.09146     -576.09146      38.436956    
   1024000   3033.3915     -535.12037     -573.93794     -573.93794      38.817566    
   1025000   2976.4397     -537.78389     -575.87265     -575.87265      38.088767    
   1026000   2984.609      -542.55374     -580.74705     -580.74705      38.193309    
   1027000   2990.7604     -534.79757     -573.0696      -573.0696       38.272027    
   1028000   2991.0334     -538.36062     -576.63614     -576.63614      38.27552     
   1029000   3017.7691     -540.24611     -578.86376     -578.86376      38.61765     
   1030000   3054.7737     -533.03709     -572.12827     -572.12827      39.091188    
   1031000   2980.1313     -540.32374     -578.45975     -578.45975      38.136008    
   1032000   2986.5953     -537.75714     -575.97587     -575.97587      38.218726    
   1033000   2967.9322     -539.53886     -577.51876     -577.51876      37.979899    
   1034000   3015.0258     -540.78022     -579.36276     -579.36276      38.582545    
   1035000   2873.1193     -539.15336     -575.91996     -575.91996      36.766601    
   1036000   2935.0267     -538.26553     -575.82435     -575.82435      37.558816    
   1037000   3011.9379     -543.09929     -581.64232     -581.64232      38.54303     
   1038000   2978.1465     -536.21792     -574.32853     -574.32853      38.110609    
   1039000   3039.1395     -543.52147     -582.41259     -582.41259      38.891122    
   1040000   2935.6973     -541.51478     -579.08217     -579.08217      37.567398    
   1041000   3054.0287     -540.81645     -579.8981      -579.8981       39.081655    
   1042000   2984.35       -540.14896     -578.33895     -578.33895      38.189993    
   1043000   3030.8162     -545.59323     -584.37784     -584.37784      38.78461     
   1044000   2967.3782     -543.66261     -581.63542     -581.63542      37.97281     
   1045000   3001.6168     -541.92587     -580.33683     -580.33683      38.410952    
   1046000   2968.1395     -545.71144     -583.69399     -583.69399      37.982552    
   1047000   2937.0532     -539.7033      -577.28805     -577.28805      37.584748    
   1048000   3028.7839     -542.61596     -581.37456     -581.37456      38.758603    
   1049000   2962.5515     -540.12855     -578.0396      -578.0396       37.911044    
   1050000   2983.3166     -540.12396     -578.30073     -578.30073      38.17677     
   1051000   3075.2094     -538.91453     -578.26723     -578.26723      39.352699    
   1052000   2938.3676     -543.97544     -581.57701     -581.57701      37.601568    
   1053000   3076.0684     -541.06081     -580.4245      -580.4245       39.363691    
   1054000   2956.2544     -537.46187     -575.29233     -575.29233      37.830461    
   1055000   2973.1496     -545.79775     -583.84442     -583.84442      38.046665    
   1056000   3154.0266     -553.03619     -593.39749     -593.39749      40.361303    
   1057000   2937.5403     -542.88238     -580.47337     -580.47337      37.590981    
   1058000   2990.2756     -547.74194     -586.00776     -586.00776      38.265823    
   1059000   2987.3092     -551.9077      -590.13556     -590.13556      38.227862    
   1060000   2999.4143     -546.40764     -584.79041     -584.79041      38.382768    
   1061000   2985.3072     -545.98314     -584.18538     -584.18538      38.202242    
   1062000   3055.837      -551.99406     -591.09885     -591.09885      39.104796    
   1063000   2981.364      -551.93944     -590.09122     -590.09122      38.151783    
   1064000   3035.5812     -550.2393      -589.08489     -589.08489      38.845587    
   1065000   3016.7516     -549.63192     -588.23655     -588.23655      38.604629    
   1066000   2877.6893     -554.97267     -591.79775     -591.79775      36.825083    
   1067000   2968.6722     -553.56351     -591.55288     -591.55288      37.989369    
   1068000   3001.3994     -548.7906      -587.19877     -587.19877      38.40817     
   1069000   3041.6852     -550.1662      -589.0899      -589.0899       38.923698    
   1070000   2992.2731     -545.34167     -583.63306     -583.63306      38.291384    
   1071000   3038.5874     -543.03883     -581.92288     -581.92288      38.884057    
   1072000   3019.6066     -547.98263     -586.62379     -586.62379      38.641164    
   1073000   2931.8439     -548.24173     -585.75982     -585.75982      37.518086    
   1074000   2959.9441     -544.60028     -582.47795     -582.47795      37.877678    
   1075000   3019.8732     -551.85997     -590.50454     -590.50454      38.644576    
   1076000   2972.5178     -544.40256     -582.44114     -582.44114      38.03858     
   1077000   2969.2798     -546.0344      -584.03154     -584.03154      37.997144    
   1078000   2964.4338     -548.25805     -586.19318     -586.19318      37.935131    
   1079000   3016.5909     -548.11548     -586.71806     -586.71806      38.602573    
   1080000   2915.5885     -555.22162     -592.53169     -592.53169      37.310069    
   1081000   3008.8544     -553.48049     -591.98406     -591.98406      38.503571    
   1082000   3030.0029     -549.05488     -587.82908     -587.82908      38.774203    
   1083000   3010.4741     -550.82297     -589.34726     -589.34726      38.524297    
   1084000   3013.9253     -550.36876     -588.93722     -588.93722      38.568462    
   1085000   2987.5643     -546.59512     -584.82625     -584.82625      38.231127    
   1086000   3044.0537     -553.73217     -592.68618     -592.68618      38.954007    
   1087000   3000.8422     -553.93229     -592.33333     -592.33333      38.401041    
   1088000   3003.8878     -550.44502     -588.88504     -588.88504      38.440015    
   1089000   2976.3247     -558.37461     -596.4619      -596.4619       38.087296    
   1090000   3015.3579     -556.33567     -594.92247     -594.92247      38.586794    
   1091000   2984.0556     -549.47253     -587.65876     -587.65876      38.186227    
   1092000   3017.6917     -549.4513      -588.06796     -588.06796      38.616659    
   1093000   2941.0149     -551.76016     -589.3956      -589.3956       37.635445    
   1094000   3095.5801     -551.95885     -591.57223     -591.57223      39.613378    
   1095000   3032.5452     -557.20237     -596.0091      -596.0091       38.806736    
   1096000   2997.6469     -546.76805     -585.1282      -585.1282       38.360151    
   1097000   2994.2004     -546.0171      -584.33315     -584.33315      38.316046    
   1098000   2950.5531     -544.74559     -582.50309     -582.50309      37.757503    
   1099000   2934.7034     -551.71973     -589.27441     -589.27441      37.554679    
   1100000   3064.5095     -549.90102     -589.1168      -589.1168       39.215775    
   1100047   3029.2698     -551.73829     -590.50311     -590.50311      38.764821    
Loop time of 47.7938 on 1 procs for 100000 steps with 100 atoms

Performance: 18.078 ns/day, 1.328 hours/ns, 2092.323 timesteps/s, 209.232 katom-step/s
99.9% CPU use with 1 MPI tasks x 1 OpenMP threads

MPI task timing breakdown:
Section |  min time  |  avg time  |  max time  |%varavg| %total
---------------------------------------------------------------
Pair    | 45.915     | 45.915     | 45.915     |   0.0 | 96.07
Neigh   | 0.78197    | 0.78197    | 0.78197    |   0.0 |  1.64
Comm    | 0.11524    | 0.11524    | 0.11524    |   0.0 |  0.24
Output  | 0.023389   | 0.023389   | 0.023389   |   0.0 |  0.05
Modify  | 0.86304    | 0.86304    | 0.86304    |   0.0 |  1.81
Other   |            | 0.09528    |            |       |  0.20

Nlocal:            100 ave         100 max         100 min
Histogram: 1 0 0 0 0 0 0 0 0 0
Nghost:            118 ave         118 max         118 min
Histogram: 1 0 0 0 0 0 0 0 0 0
Neighs:              0 ave           0 max           0 min
Histogram: 1 0 0 0 0 0 0 0 0 0
FullNghs:         5704 ave        5704 max        5704 min
Histogram: 1 0 0 0 0 0 0 0 0 0

Total # of neighbors = 5704
Ave neighs/atom = 57.04
Neighbor list builds = 3315
Dangerous builds = 0
write_restart 	./endconf/endconf*2.restart
System init for write_restart ...

#=================Cooling Phase=====================

# Re-minimize before cooling
#min_style       sd
#minimize        1.0e-5 1.0e-7 500 1000

unfix 			4
fix 			5 all temp/berendsen ${tempchauf} 0.0 ${Tdamp}
fix 			5 all temp/berendsen 3000 0.0 ${Tdamp}
fix 			5 all temp/berendsen 3000 0.0 0.001

run 			${iter}
run 			1000000
Per MPI rank memory allocation (min/avg/max) = 5.166 | 5.166 | 5.166 Mbytes
   Step          Temp          TotEng         E_pair         PotEng         KinEng    
   1100047   3029.2698     -551.73829     -590.50311     -590.50311      38.764821    
   1101000   2945.4723     -558.11288     -595.80536     -595.80536      37.692485    
   1102000   3029.0169     -548.19701     -586.9586      -586.9586       38.761586    
   1103000   2971.0807     -553.152       -591.17219     -591.17219      38.02019     
   1104000   3072.546      -550.56475     -589.88336     -589.88336      39.318616    
   1105000   3003.3691     -546.42682     -584.8602      -584.8602       38.433377    
   1106000   3028.2        -550.53757     -589.28871     -589.28871      38.751132    
   1107000   3034.7882     -551.76676     -590.6022      -590.6022       38.835439    
   1108000   2909.8364     -553.51045     -590.74691     -590.74691      37.236462    
   1109000   3017.6485     -549.22834     -587.84445     -587.84445      38.616107    
   1110000   3039.6821     -553.87731     -592.77538     -592.77538      38.898065    
   1111000   2933.4335     -558.00561     -595.54404     -595.54404      37.538428    
   1112000   2940.519      -552.46461     -590.09371     -590.09371      37.629099    
   1113000   2972.4748     -555.87536     -593.91339     -593.91339      38.03803     
   1114000   2977.5862     -548.55579     -586.65923     -586.65923      38.10344     
   1115000   2904.8021     -552.20922     -589.38125     -589.38125      37.172039    
   1116000   2828.7185     -553.00832     -589.20674     -589.20674      36.198415    
   1117000   2914.5419     -546.7187      -584.01538     -584.01538      37.296676    
   1118000   2945.5237     -557.67622     -595.36936     -595.36936      37.693144    
   1119000   2991.2626     -551.36695     -589.6454      -589.6454       38.278453    
   1120000   2911.3909     -554.6888      -591.94515     -591.94515      37.256354    
   1121000   2971.2819     -554.3188      -592.34157     -592.34157      38.022765    
   1122000   2889.9111     -558.00494     -594.98642     -594.98642      36.981482    
   1123000   2906.4224     -554.56036     -591.75314     -591.75314      37.192774    
   1124000   2894.997      -553.64843     -590.695       -590.695        37.046566    
   1125000   2918.3448     -554.9721      -592.31744     -592.31744      37.345341    
   1126000   3027.4695     -550.88759     -589.62938     -589.62938      38.741784    
   1127000   2901.1025     -554.46928     -591.59398     -591.59398      37.124696    
   1128000   2983.2865     -557.04695     -595.22334     -595.22334      38.176385    
   1129000   2968.4423     -555.33244     -593.31887     -593.31887      37.986427    
   1130000   2935.4724     -553.43495     -590.99947     -590.99947      37.564519    
   1131000   2927.1017     -555.72637     -593.18377     -593.18377      37.457401    
   1132000   2968.7077     -554.05338     -592.0432      -592.0432       37.989823    
   1133000   2934.5686     -550.07107     -587.62402     -587.62402      37.552953    
   1134000   2931.938      -553.41643     -590.93572     -590.93572      37.519291    
   1135000   2841.0241     -553.32403     -589.67992     -589.67992      36.355887    
   1136000   2920.2671     -553.73585     -591.10579     -591.10579      37.369941    
   1137000   2830.7657     -556.39282     -592.61744     -592.61744      36.224614    
   1138000   2947.1896     -553.27732     -590.99179     -590.99179      37.714462    
   1139000   2874.5664     -558.89163     -595.67675     -595.67675      36.785119    
   1140000   2898.2255     -553.93989     -591.02777     -591.02777      37.08788     
   1141000   2840.7786     -559.0681      -595.42085     -595.42085      36.352745    
   1142000   2832.112      -555.63946     -591.8813      -591.8813       36.241842    
   1143000   2765.614      -552.01228     -587.40316     -587.40316      35.390883    
   1144000   2869.6668     -554.33572     -591.05814     -591.05814      36.722422    
   1145000   2857.1676     -553.14604     -589.70851     -589.70851      36.562472    
   1146000   2880.6096     -559.63778     -596.50024     -596.50024      36.862453    
   1147000   2852.4486     -557.35165     -593.85373     -593.85373      36.502084    
   1148000   2887.1046     -551.5042      -588.44977     -588.44977      36.945569    
   1149000   2928.4297     -553.92424     -591.39863     -591.39863      37.474395    
   1150000   2810.4705     -557.62697     -593.59187     -593.59187      35.964901    
   1151000   2811.2132     -552.55769     -588.5321      -588.5321       35.974405    
   1152000   2903.8405     -554.83056     -591.9903      -591.9903       37.159733    
   1153000   2765.0279     -555.84144     -591.22483     -591.22483      35.383382    
   1154000   2879.9565     -556.34436     -593.19846     -593.19846      36.854096    
   1155000   2889.7801     -557.50579     -594.4856      -594.4856       36.979807    
   1156000   2812.4027     -561.93283     -597.92246     -597.92246      35.989627    
   1157000   2846.5493     -563.02808     -599.45468     -599.45468      36.426593    
   1158000   2854.5841     -557.0469      -593.57631     -593.57631      36.529412    
   1159000   2762.6432     -558.94691     -594.29977     -594.29977      35.352866    
   1160000   2895.0506     -558.1932      -595.24046     -595.24046      37.047252    
   1161000   2764.1456     -559.67125     -595.04334     -595.04334      35.372092    
   1162000   2826.6438     -560.20617     -596.37804     -596.37804      36.171867    
   1163000   2836.0276     -559.56762     -595.85957     -595.85957      36.291948    
   1164000   2805.013      -565.17444     -601.06951     -601.06951      35.895062    
   1165000   2797.7471     -560.30055     -596.10263     -596.10263      35.802083    
   1166000   2836.3893     -556.94241     -593.23899     -593.23899      36.296577    
   1167000   2748.7583     -559.0326      -594.20778     -594.20778      35.175185    
   1168000   2754.472      -558.14846     -593.39676     -593.39676      35.248302    
   1169000   2809.3625     -561.92902     -597.87975     -597.87975      35.950722    
   1170000   2764.343      -561.68314     -597.05776     -597.05776      35.374618    
   1171000   2772.2439     -561.39641     -596.87214     -596.87214      35.475724    
   1172000   2808.0215     -561.20568     -597.13924     -597.13924      35.933561    
   1173000   2812.1262     -560.52051     -596.5066      -596.5066       35.986088    
   1174000   2817.3902     -564.5129      -600.56635     -600.56635      36.05345     
   1175000   2695.3073     -559.36161     -593.8528      -593.8528       34.491186    
   1176000   2764.2684     -562.58901     -597.96267     -597.96267      35.373663    
   1177000   2724.8545     -564.68231     -599.55161     -599.55161      34.869294    
   1178000   2719.8686     -562.4215      -597.227       -597.227        34.805491    
   1179000   2684.1031     -560.89569     -595.24349     -595.24349      34.347808    
   1180000   2707.4378     -559.34991     -593.99633     -593.99633      34.646417    
   1181000   2660.4328     -554.63968     -588.68459     -588.68459      34.044906    
   1182000   2794.9105     -563.90905     -599.67483     -599.67483      35.765783    
   1183000   2735.5354     -563.13199     -598.13797     -598.13797      35.005975    
   1184000   2797.267      -567.47324     -603.26918     -603.26918      35.795939    
   1185000   2784.3537     -559.35695     -594.98764     -594.98764      35.63069     
   1186000   2717.9469     -559.13525     -593.91614     -593.91614      34.780898    
   1187000   2842.9133     -567.63653     -604.01659     -604.01659      36.380063    
   1188000   2712.2294     -559.65216     -594.3599      -594.3599       34.707734    
   1189000   2669.7162     -556.42315     -590.58685     -590.58685      34.163703    
   1190000   2726.0476     -564.66517     -599.54973     -599.54973      34.884562    
   1191000   2740.8816     -562.92265     -597.99704     -597.99704      35.074388    
   1192000   2752.5286     -565.17916     -600.4026      -600.4026       35.223433    
   1193000   2751.4415     -563.54883     -598.75835     -598.75835      35.209521    
   1194000   2745.02       -565.08872     -600.21607     -600.21607      35.127346    
   1195000   2706.2138     -563.21237     -597.84312     -597.84312      34.630753    
   1196000   2666.1365     -563.47154     -597.58944     -597.58944      34.117893    
   1197000   2748.0933     -561.04321     -596.20989     -596.20989      35.166674    
   1198000   2658.8206     -558.85769     -592.88196     -592.88196      34.024274    
   1199000   2676.862      -567.57744     -601.83258     -601.83258      34.255146    
   1200000   2643.8304     -562.37719     -596.20964     -596.20964      33.832448    
   1201000   2669.261      -565.16789     -599.32577     -599.32577      34.157877    
   1202000   2672.13       -563.81822     -598.01281     -598.01281      34.194591    
   1203000   2737.5325     -563.50767     -598.5392      -598.5392       35.031531    
   1204000   2718.534      -565.60313     -600.39155     -600.39155      34.788412    
   1205000   2636.3796     -561.01287     -594.74998     -594.74998      33.737103    
   1206000   2714.4784     -562.30304     -597.03956     -597.03956      34.736513    
   1207000   2703.9119     -568.38764     -602.98894     -602.98894      34.601297    
   1208000   2687.4643     -565.70096     -600.09178     -600.09178      34.390821    
   1209000   2670.9012     -563.60312     -597.78199     -597.78199      34.178866    
   1210000   2627.5498     -567.22686     -600.85097     -600.85097      33.62411     
   1211000   2652.3621     -568.19776     -602.13939     -602.13939      33.941626    
   1212000   2654.2725     -566.31678     -600.28286     -600.28286      33.966073    
   1213000   2697.154      -559.23485     -593.74967     -593.74967      34.514818    
   1214000   2642.7373     -564.78293     -598.60139     -598.60139      33.81846     
   1215000   2646.4706     -568.64196     -602.50819     -602.50819      33.866235    
   1216000   2573.0843     -559.72524     -592.65236     -592.65236      32.927127    
   1217000   2612.9292     -564.8188      -598.25582     -598.25582      33.437013    
   1218000   2639.0104     -569.48188     -603.25265     -603.25265      33.770768    
   1219000   2703.3601     -560.22549     -594.81972     -594.81972      34.594235    
   1220000   2625.5405     -563.81416     -597.41256     -597.41256      33.598397    
   1221000   2592.0625     -561.65467     -594.82466     -594.82466      33.169988    
   1222000   2635.2362     -562.24276     -595.96523     -595.96523      33.722471    
   1223000   2618.1595     -562.7077      -596.21164     -596.21164      33.503944    
   1224000   2682.5051     -567.33759     -601.66495     -601.66495      34.327359    
   1225000   2560.5212     -563.07404     -595.8404      -595.8404       32.766361    
   1226000   2552.6527     -558.45733     -591.123       -591.123        32.66567     
   1227000   2622.2846     -563.3856      -596.94233     -596.94233      33.556732    
   1228000   2666.0919     -564.3643      -598.48162     -598.48162      34.117323    
   1229000   2630.7388     -567.2239      -600.88882     -600.88882      33.664919    
   1230000   2609.4358     -566.58194     -599.97425     -599.97425      33.39231     
   1231000   2624.5431     -564.09149     -597.67712     -597.67712      33.585633    
   1232000   2596.6587     -566.01876     -599.24756     -599.24756      33.228803    
   1233000   2613.067      -565.08425     -598.52302     -598.52302      33.438776    
   1234000   2565.3027     -563.86781     -596.69536     -596.69536      32.827548    
   1235000   2513.8265     -563.48008     -595.6489      -595.6489       32.168821    
   1236000   2619.3168     -566.49971     -600.01846     -600.01846      33.518754    
   1237000   2568.4399     -561.37036     -594.23806     -594.23806      32.867695    
   1238000   2529.3273     -566.96946     -599.33664     -599.33664      32.36718     
   1239000   2626.3115     -568.72651     -602.33477     -602.33477      33.608263    
   1240000   2591.4518     -559.80476     -592.96693     -592.96693      33.162172    
   1241000   2610.8808     -564.66593     -598.07673     -598.07673      33.4108      
   1242000   2458.4355     -567.55466     -599.01466     -599.01466      31.459995    
   1243000   2580.4151     -565.44811     -598.46905     -598.46905      33.020939    
   1244000   2524.9804     -567.38774     -599.69929     -599.69929      32.311554    
   1245000   2559.9623     -565.90396     -598.66316     -598.66316      32.759208    
   1246000   2577.1074     -568.59306     -601.57167     -601.57167      32.97861     
   1247000   2591.0749     -567.21507     -600.37242     -600.37242      33.157349    
   1248000   2553.5423     -562.90622     -595.58327     -595.58327      32.677053    
   1249000   2553.4345     -564.33674     -597.01241     -597.01241      32.675674    
   1250000   2530.235      -567.53414     -599.91293     -599.91293      32.378795    
   1251000   2543.28       -564.37224     -596.91797     -596.91797      32.545729    
   1252000   2633.2796     -568.80822     -602.50565     -602.50565      33.697433    
   1253000   2537.1487     -565.56794     -598.03521     -598.03521      32.467269    
   1254000   2550.2329     -566.12057     -598.75527     -598.75527      32.634704    
   1255000   2488.2678     -565.07751     -596.91926     -596.91926      31.841752    
   1256000   2491.1887     -568.05669     -599.93582     -599.93582      31.87913     
   1257000   2556.2261     -572.36842     -605.07981     -605.07981      32.711397    
   1258000   2527.9735     -566.43528     -598.78513     -598.78513      32.349856    
   1259000   2525.8551     -568.04477     -600.36752     -600.36752      32.322747    
   1260000   2612.1089     -562.17121     -595.59772     -595.59772      33.426516    
   1261000   2569.0839     -567.64038     -600.51631     -600.51631      32.875936    
   1262000   2509.1591     -565.11566     -597.22475     -597.22475      32.109093    
   1263000   2569.2208     -568.97844     -601.85612     -601.85612      32.877687    
   1264000   2477.6989     -564.00406     -595.71056     -595.71056      31.706504    
   1265000   2472.8544     -565.36541     -597.00992     -597.00992      31.64451     
   1266000   2527.5048     -567.27929     -599.62315     -599.62315      32.343858    
   1267000   2557.6282     -567.90351     -600.63285     -600.63285      32.72934     
   1268000   2537.7383     -570.2888      -602.76361     -602.76361      32.474813    
   1269000   2489.3237     -571.34352     -603.19879     -603.19879      31.855264    
   1270000   2473.9338     -568.99222     -600.65054     -600.65054      31.658323    
   1271000   2479.6045     -564.55285     -596.28374     -596.28374      31.73089     
   1272000   2457.2777     -569.856       -601.30118     -601.30118      31.445179    
   1273000   2513.8751     -564.0088      -596.17825     -596.17825      32.169443    
   1274000   2534.1684     -566.96677     -599.3959      -599.3959       32.42913     
   1275000   2499.6371     -564.1174      -596.10464     -596.10464      31.987242    
   1276000   2449.9491     -565.51522     -596.86661     -596.86661      31.351396    
   1277000   2503.0858     -570.54323     -602.5746      -602.5746       32.031374    
   1278000   2440.5885     -567.29503     -598.52664     -598.52664      31.231611    
   1279000   2448.3444     -569.90905     -601.23991     -601.23991      31.330862    
   1280000   2483.231      -570.15827     -601.93557     -601.93557      31.777297    
   1281000   2483.2572     -567.47792     -599.25556     -599.25556      31.777633    
   1282000   2455.0437     -569.70109     -601.11768     -601.11768      31.416592    
   1283000   2477.9621     -573.18808     -604.89796     -604.89796      31.709872    
   1284000   2420.5254     -567.83229     -598.80716     -598.80716      30.974869    
   1285000   2496.2849     -575.0855      -607.02984     -607.02984      31.944345    
   1286000   2411.1071     -571.243       -602.09734     -602.09734      30.854345    
   1287000   2393.1369     -572.9407      -603.56508     -603.56508      30.624384    
   1288000   2492.0928     -565.34473     -597.23543     -597.23543      31.8907      
   1289000   2428.2203     -572.75235     -603.82569     -603.82569      31.073339    
   1290000   2404.2797     -569.36673     -600.1337      -600.1337       30.766976    
   1291000   2477.2419     -570.45536     -602.15601     -602.15601      31.700656    
   1292000   2450.3596     -566.08488     -597.44153     -597.44153      31.35665     
   1293000   2419.0514     -574.11494     -605.07095     -605.07095      30.956006    
   1294000   2445.6657     -568.02382     -599.32041     -599.32041      31.296583    
   1295000   2437.0342     -568.59009     -599.77622     -599.77622      31.186127    
   1296000   2355.1173     -572.43162     -602.56948     -602.56948      30.137857    
   1297000   2433.3992     -563.29543     -594.43504     -594.43504      31.139611    
   1298000   2424.5414     -569.06053     -600.08679     -600.08679      31.026261    
   1299000   2417.0201     -572.28838     -603.21839     -603.21839      30.930012    
   1300000   2364.3869     -572.8735      -603.12998     -603.12998      30.256478    
   1301000   2398.199      -568.16948     -598.85865     -598.85865      30.689163    
   1302000   2410.7192     -570.7388      -601.58818     -601.58818      30.849381    
   1303000   2447.5239     -572.91885     -604.23921     -604.23921      31.320362    
   1304000   2352.323      -570.27631     -600.37841     -600.37841      30.102099    
   1305000   2392.16       -572.62741     -603.23929     -603.23929      30.611884    
   1306000   2428.6356     -571.73594     -602.81459     -602.81459      31.078653    
   1307000   2324.4127     -575.88266     -605.6276      -605.6276       29.744938    
   1308000   2406.4384     -572.50781     -603.30241     -603.30241      30.794601    
   1309000   2384.3384     -570.28434     -600.79613     -600.79613      30.511793    
   1310000   2367.7996     -570.23224     -600.53239     -600.53239      30.30015     
   1311000   2447.1304     -568.51839     -599.83371     -599.83371      31.315327    
   1312000   2345.3847     -575.21076     -605.22407     -605.22407      30.013312    
   1313000   2340.1919     -574.70988     -604.65674     -604.65674      29.946861    
   1314000   2426.6013     -571.06419     -602.11681     -602.11681      31.052621    
   1315000   2371.6958     -574.84565     -605.19565     -605.19565      30.350008    
   1316000   2383.3819     -571.17835     -601.6779      -601.6779       30.499552    
   1317000   2375.3388     -571.92754     -602.32416     -602.32416      30.396627    
   1318000   2371.4466     -572.10912     -602.45594     -602.45594      30.346819    
   1319000   2369.345      -567.20959     -597.52951     -597.52951      30.319926    
   1320000   2368.04       -572.86345     -603.16668     -603.16668      30.303226    
   1321000   2362.8198     -571.05559     -601.29201     -601.29201      30.236424    
   1322000   2300.5443     -573.54409     -602.98359     -602.98359      29.4395      
   1323000   2312.6708     -572.40413     -601.99881     -601.99881      29.59468     
   1324000   2335.5489     -573.10145     -602.9889      -602.9889       29.887445    
   1325000   2263.2408     -573.83566     -602.7978      -602.7978       28.962136    
   1326000   2405.7935     -567.95016     -598.73651     -598.73651      30.786349    
   1327000   2325.7576     -575.20537     -604.96752     -604.96752      29.762148    
   1328000   2315.356      -575.66858     -605.29762     -605.29762      29.629041    
   1329000   2313.952      -574.56812     -604.1792      -604.1792       29.611076    
   1330000   2265.6925     -577.57699     -606.5705      -606.5705       28.993511    
   1331000   2301.4476     -576.79255     -606.24361     -606.24361      29.45106     
   1332000   2330.9947     -573.25002     -603.07919     -603.07919      29.829166    
   1333000   2345.1702     -575.58056     -605.59113     -605.59113      30.010567    
   1334000   2314.0737     -573.75521     -603.36785     -603.36785      29.612633    
   1335000   2329.0772     -574.94418     -604.74881     -604.74881      29.804629    
   1336000   2318.5729     -579.701       -609.37121     -609.37121      29.670208    
   1337000   2268.1732     -572.76613     -601.79138     -601.79138      29.025255    
   1338000   2315.8916     -575.21604     -604.85194     -604.85194      29.635896    
   1339000   2321.8266     -573.18845     -602.90029     -602.90029      29.711845    
   1340000   2269.0484     -573.53065     -602.5671      -602.5671       29.036455    
   1341000   2327.3528     -571.63437     -601.41693     -601.41693      29.782562    
   1342000   2237.3384     -575.68433     -604.315       -604.315        28.63067     
   1343000   2250.1474     -575.16257     -603.95716     -603.95716      28.794584    
   1344000   2198.4221     -576.67248     -604.80515     -604.80515      28.132668    
   1345000   2297.3147     -578.31543     -607.71361     -607.71361      29.398172    
   1346000   2249.1975     -571.47139     -600.25382     -600.25382      28.782428    
   1347000   2225.7313     -569.9928      -598.47494     -598.47494      28.482137    
   1348000   2274.9227     -574.04351     -603.15514     -603.15514      29.111627    
   1349000   2264.811      -574.24758     -603.22981     -603.22981      28.98223     
   1350000   2251.7673     -574.33122     -603.14654     -603.14654      28.815314    
   1351000   2264.3538     -577.32972     -606.3061      -606.3061       28.976379    
   1352000   2268.2216     -577.62157     -606.64744     -606.64744      29.025874    
   1353000   2280.7225     -576.80211     -605.98795     -605.98795      29.185846    
   1354000   2232.7831     -574.56416     -603.13654     -603.13654      28.572377    
   1355000   2233.7113     -576.55798     -605.14223     -605.14223      28.584255    
   1356000   2217.2566     -580.31289     -608.68658     -608.68658      28.373688    
   1357000   2228.9694     -572.08844     -600.61201     -600.61201      28.523574    
   1358000   2193.444      -577.09164     -605.1606      -605.1606       28.068965    
   1359000   2200.2899     -577.56059     -605.71716     -605.71716      28.15657     
   1360000   2229.305      -578.02694     -606.55481     -606.55481      28.527869    
   1361000   2164.1095     -574.51029     -602.20387     -602.20387      27.693578    
   1362000   2227.3103     -579.98303     -608.48537     -608.48537      28.502343    
   1363000   2229.8381     -575.61437     -604.14906     -604.14906      28.53469     
   1364000   2195.8874     -572.60163     -600.70186     -600.70186      28.100232    
   1365000   2175.2521     -573.16937     -601.00553     -601.00553      27.836167    
   1366000   2203.1863     -578.78241     -606.97605     -606.97605      28.193634    
   1367000   2141.7233     -576.45263     -603.85973     -603.85973      27.407107    
   1368000   2180.2108     -576.84171     -604.74133     -604.74133      27.899622    
   1369000   2129.1436     -577.48122     -604.72735     -604.72735      27.246127    
   1370000   2208.8507     -581.38639     -609.65251     -609.65251      28.26612     
   1371000   2204.7094     -574.06796     -602.28108     -602.28108      28.213125    
   1372000   2230.534      -576.11191     -604.65551     -604.65551      28.543596    
   1373000   2187.0846     -577.15556     -605.14315     -605.14315      27.987584    
   1374000   2154.4657     -579.99772     -607.56789     -607.56789      27.570168    
   1375000   2176.8141     -580.55546     -608.41161     -608.41161      27.856156    
   1376000   2172.8303     -581.19814     -609.00332     -609.00332      27.805176    
   1377000   2142.9527     -578.10669     -605.52953     -605.52953      27.422839    
   1378000   2127.8066     -581.12533     -608.35435     -608.35435      27.229019    
   1379000   2167.8106     -580.54939     -608.29033     -608.29033      27.740939    
   1380000   2191.933      -577.83941     -605.88904     -605.88904      28.049628    
   1381000   2087.2088     -579.88584     -606.59534     -606.59534      26.709498    
   1382000   2227.3734     -577.68571     -606.18886     -606.18886      28.50315     
   1383000   2144.2157     -579.60663     -607.04563     -607.04563      27.439001    
   1384000   2129.0124     -579.84387     -607.08832     -607.08832      27.244449    
   1385000   2091.4706     -579.19169     -605.95573     -605.95573      26.764036    
   1386000   2112.8684     -578.22846     -605.26632     -605.26632      27.037858    
   1387000   2112.783      -573.08543     -600.12219     -600.12219      27.036765    
   1388000   2142.7156     -580.428       -607.84781     -607.84781      27.419805    
   1389000   2108.4227     -575.90677     -602.88774     -602.88774      26.980968    
   1390000   2102.526      -578.78154     -605.68705     -605.68705      26.905508    
   1391000   2167.7045     -577.83768     -605.57726     -605.57726      27.739582    
   1392000   2151.2141     -580.94295     -608.47151     -608.47151      27.528559    
   1393000   2167.7821     -581.56694     -609.30751     -609.30751      27.740575    
   1394000   2100.6516     -579.59342     -606.47495     -606.47495      26.881522    
   1395000   2097.1085     -581.31672     -608.1529      -608.1529       26.836182    
   1396000   2134.9458     -578.33281     -605.65318     -605.65318      27.320377    
   1397000   2047.3738     -581.06601     -607.26574     -607.26574      26.19974     
   1398000   2093.9112     -581.0621      -607.85736     -607.85736      26.795267    
   1399000   2078.2127     -582.08823     -608.68261     -608.68261      26.594377    
   1400000   2143.1592     -578.37633     -605.80181     -605.80181      27.425481    
   1401000   2109.083      -577.36422     -604.35364     -604.35364      26.989417    
   1402000   2059.0174     -579.97367     -606.32241     -606.32241      26.34874     
   1403000   2086.4485     -582.75006     -609.44983     -609.44983      26.699768    
   1404000   2140.9491     -582.16458     -609.56178     -609.56178      27.3972      
   1405000   2077.7869     -580.77811     -607.36703     -607.36703      26.588928    
   1406000   2107.671      -579.55056     -606.5219      -606.5219       26.971348    
   1407000   2122.3915     -576.90385     -604.06357     -604.06357      27.159723    
   1408000   2098.5397     -578.44767     -605.30217     -605.30217      26.854497    
   1409000   2040.2448     -579.27294     -605.38145     -605.38145      26.108512    
   1410000   2033.7262     -581.23791     -607.26301     -607.26301      26.025095    
   1411000   2123.7999     -580.64851     -607.82625     -607.82625      27.177746    
   1412000   2044.769      -581.4609      -607.62731     -607.62731      26.166407    
   1413000   2037.2439     -583.27012     -609.34023     -609.34023      26.070109    
   1414000   2083.2731     -579.44658     -606.10571     -606.10571      26.659134    
   1415000   2061.9539     -581.18896     -607.57528     -607.57528      26.386317    
   1416000   2054.0871     -583.00105     -609.2867      -609.2867       26.285648    
   1417000   2077.023      -581.11455     -607.6937      -607.6937       26.579153    
   1418000   2021.7511     -581.16352     -607.03538     -607.03538      25.871853    
   1419000   2048.6129     -583.54922     -609.76481     -609.76481      26.215597    
   1420000   2074.2522     -582.54161     -609.08531     -609.08531      26.543695    
   1421000   2052.748      -581.52736     -607.79587     -607.79587      26.268512    
   1422000   2066.4983     -580.80761     -607.25209     -607.25209      26.444471    
   1423000   1996.1028     -578.06001     -603.60364     -603.60364      25.543638    
   1424000   2016.0996     -582.3508      -608.15033     -608.15033      25.799531    
   1425000   2058.5339     -582.04423     -608.38678     -608.38678      26.342553    
   1426000   1999.7428     -580.50765     -606.09787     -606.09787      25.590217    
   1427000   2026.2766     -584.36969     -610.29945     -610.29945      25.929764    
   1428000   2021.4593     -580.58249     -606.4506      -606.4506       25.868119    
   1429000   2004.7773     -582.30079     -607.95543     -607.95543      25.654642    
   1430000   2034.8039     -582.74353     -608.78241     -608.78241      26.038886    
   1431000   1973.8581     -583.68925     -608.94823     -608.94823      25.258977    
   1432000   1982.4869     -586.0292      -611.3986      -611.3986       25.369398    
   1433000   1968.7104     -580.22902     -605.42212     -605.42212      25.193104    
   1434000   1980.3254     -581.12089     -606.46263     -606.46263      25.341738    
   1435000   1959.3876     -579.73348     -604.80728     -604.80728      25.073802    
   1436000   1985.7572     -580.74055     -606.15179     -606.15179      25.411247    
   1437000   2013.3961     -583.35873     -609.12366     -609.12366      25.764935    
   1438000   1930.4477     -583.44194     -608.1454      -608.1454       24.703465    
   1439000   1948.8792     -582.61815     -607.55747     -607.55747      24.939328    
   1440000   1971.677      -582.28442     -607.51549     -607.51549      25.231067    
   1441000   1968.3285     -585.0452      -610.23342     -610.23342      25.188217    
   1442000   1975.5959     -583.4591      -608.74032     -608.74032      25.281216    
   1443000   2014.9993     -584.76032     -610.54577     -610.54577      25.785451    
   1444000   1932.9997     -581.17217     -605.90829     -605.90829      24.736123    
   1445000   1991.2906     -577.86629     -603.34835     -603.34835      25.482057    
   1446000   1953.7485     -581.87091     -606.87255     -606.87255      25.00164     
   1447000   2005.2972     -588.60062     -614.26192     -614.26192      25.661295    
   1448000   1976.6577     -587.70676     -613.00157     -613.00157      25.294803    
   1449000   1931.9499     -585.58015     -610.30283     -610.30283      24.722688    
   1450000   1959.1588     -586.19041     -611.26128     -611.26128      25.070874    
   1451000   1958.4672     -580.72515     -605.78718     -605.78718      25.062024    
   1452000   1961.6896     -586.64013     -611.74339     -611.74339      25.103259    
   1453000   1942.7032     -585.8673      -610.7276      -610.7276       24.860295    
   1454000   1930.4829     -583.71954     -608.42345     -608.42345      24.703915    
   1455000   1903.9192     -588.42174     -612.78572     -612.78572      24.363986    
   1456000   1959.0101     -582.15573     -607.2247      -607.2247       25.068972    
   1457000   1932.8031     -586.56392     -611.29752     -611.29752      24.733607    
   1458000   1924.1782     -585.32657     -609.9498      -609.9498       24.623235    
   1459000   1937.2949     -584.38303     -609.17412     -609.17412      24.791087    
   1460000   1896.7932     -585.3828      -609.6556      -609.6556       24.272797    
   1461000   1910.9472     -586.66294     -611.11687     -611.11687      24.453922    
   1462000   1927.5899     -583.76233     -608.42923     -608.42923      24.666894    
   1463000   1909.8686     -583.0903      -607.53042     -607.53042      24.44012     
   1464000   1921.7598     -586.37939     -610.97168     -610.97168      24.592288    
   1465000   1896.6958     -587.73286     -612.00441     -612.00441      24.27155     
   1466000   1916.3979     -585.4054      -609.92907     -609.92907      24.523673    
   1467000   1925.293      -584.61541     -609.25291     -609.25291      24.637502    
   1468000   1894.6509     -585.23498     -609.48037     -609.48037      24.245383    
   1469000   1915.9944     -584.41253     -608.93104     -608.93104      24.51851     
   1470000   1877.0374     -585.42925     -609.44924     -609.44924      24.019987    
   1471000   1879.4074     -585.14633     -609.19665     -609.19665      24.050314    
   1472000   1862.3309     -585.2212      -609.053       -609.053        23.831791    
   1473000   1856.8037     -587.53982     -611.30089     -611.30089      23.761061    
   1474000   1911.9208     -587.14949     -611.61587     -611.61587      24.46638     
   1475000   1825.9912     -587.78159     -611.14835     -611.14835      23.366761    
   1476000   1840.773      -587.0815      -610.63742     -610.63742      23.555919    
   1477000   1876.1859     -585.04772     -609.0568      -609.0568       24.00909     
   1478000   1858.4064     -585.69045     -609.47202     -609.47202      23.78157     
   1479000   1867.4241     -587.1662      -611.06317     -611.06317      23.896968    
   1480000   1884.9365     -587.17129     -611.29236     -611.29236      24.121069    
   1481000   1847.8156     -592.40792     -616.05397     -616.05397      23.646042    
   1482000   1915.4799     -586.65932     -611.17124     -611.17124      24.511926    
   1483000   1824.3778     -588.06809     -611.4142      -611.4142       23.346115    
   1484000   1803.9359     -586.99813     -610.08265     -610.08265      23.084524    
   1485000   1861.8076     -586.8873      -610.7124      -610.7124       23.825095    
   1486000   1840.089      -589.40917     -612.95634     -612.95634      23.547167    
   1487000   1848.1805     -584.73079     -608.3815      -608.3815       23.650712    
   1488000   1876.933      -587.10593     -611.12458     -611.12458      24.018651    
   1489000   1796.3142     -585.13229     -608.11928     -608.11928      22.986992    
   1490000   1856.8736     -588.79804     -612.55999     -612.55999      23.761955    
   1491000   1865.9247     -592.36024     -616.23802     -616.23802      23.87778     
   1492000   1833.4146     -586.57579     -610.03755     -610.03755      23.461756    
   1493000   1862.9321     -590.73051     -614.57        -614.57         23.839485    
   1494000   1817.3491     -588.63132     -611.88749     -611.88749      23.25617     
   1495000   1817.8359     -591.13576     -614.39816     -614.39816      23.2624      
   1496000   1848.1767     -588.37033     -612.02099     -612.02099      23.650664    
   1497000   1801.2508     -588.99377     -612.04393     -612.04393      23.050164    
   1498000   1804.1633     -586.17087     -609.2583      -609.2583       23.087435    
   1499000   1766.4247     -590.58752     -613.19202     -613.19202      22.604503    
   1500000   1778.9947     -589.59259     -612.35795     -612.35795      22.765359    
   1501000   1792.3997     -590.67994     -613.61684     -613.61684      22.936899    
   1502000   1790.43       -588.22234     -611.13403     -611.13403      22.911693    
   1503000   1789.0871     -587.63024     -610.52475     -610.52475      22.894508    
   1504000   1793.3636     -589.08857     -612.0378      -612.0378       22.949233    
   1505000   1744.1092     -591.55579     -613.87473     -613.87473      22.318937    
   1506000   1813.9583     -589.94011     -613.15289     -613.15289      23.212778    
   1507000   1804.3213     -584.2175      -607.30695     -607.30695      23.089457    
   1508000   1801.422      -590.30086     -613.35321     -613.35321      23.052355    
   1509000   1833.1891     -591.85797     -615.31684     -615.31684      23.458871    
   1510000   1778.7027     -592.81965     -615.58127     -615.58127      22.761622    
   1511000   1777.0254     -590.13948     -612.87964     -612.87964      22.740158    
   1512000   1753.9144     -590.72204     -613.16645     -613.16645      22.444412    
   1513000   1790.1447     -590.21324     -613.12129     -613.12129      22.908042    
   1514000   1751.942      -588.80715     -611.22632     -611.22632      22.419172    
   1515000   1726.7473     -586.94184     -609.0386      -609.0386       22.096761    
   1516000   1707.4045     -592.01528     -613.86452     -613.86452      21.849236    
   1517000   1706.9011     -591.13495     -612.97774     -612.97774      21.842794    
   1518000   1754.709      -588.5758      -611.03038     -611.03038      22.454579    
   1519000   1746.083      -587.79079     -610.13499     -610.13499      22.344195    
   1520000   1708.7612     -589.53069     -611.39728     -611.39728      21.866598    
   1521000   1762.2796     -588.21644     -610.7679      -610.7679       22.55146     
   1522000   1701.2726     -588.52231     -610.29307     -610.29307      21.770768    
   1523000   1736.4714     -593.9894      -616.2106      -616.2106       22.221198    
   1524000   1809.043      -589.16113     -612.31101     -612.31101      23.149879    
   1525000   1729.1483     -591.33656     -613.46404     -613.46404      22.127486    
   1526000   1701.3418     -591.81548     -613.58713     -613.58713      21.771653    
   1527000   1757.4771     -589.59967     -612.08967     -612.08967      22.490003    
   1528000   1756.3982     -591.04633     -613.52252     -613.52252      22.476196    
   1529000   1664.4659     -590.89002     -612.18978     -612.18978      21.299762    
   1530000   1721.0393     -588.8219      -610.84562     -610.84562      22.023717    
   1531000   1725.6779     -591.92186     -614.00493     -614.00493      22.083076    
   1532000   1700.3304     -592.00428     -613.76299     -613.76299      21.758711    
   1533000   1691.5646     -591.4117      -613.05823     -613.05823      21.646536    
   1534000   1701.3093     -589.50735     -611.27859     -611.27859      21.771237    
   1535000   1699.9323     -595.61675     -617.37036     -617.37036      21.753616    
   1536000   1703.9557     -588.68621     -610.49131     -610.49131      21.805103    
   1537000   1691.7139     -590.30197     -611.95042     -611.95042      21.648447    
   1538000   1706.4648     -593.48373     -615.32094     -615.32094      21.83721     
   1539000   1719.5606     -590.02137     -612.02616     -612.02616      22.004795    
   1540000   1680.1449     -593.72493     -615.22533     -615.22533      21.500402    
   1541000   1652.6573     -591.77696     -612.92561     -612.92561      21.14865     
   1542000   1658.6723     -588.43113     -609.65675     -609.65675      21.225622    
   1543000   1662.1165     -591.65346     -612.92315     -612.92315      21.269697    
   1544000   1627.9097     -593.04758     -613.87954     -613.87954      20.831961    
   1545000   1682.7294     -589.73706     -611.27053     -611.27053      21.533475    
   1546000   1617.1925     -593.53108     -614.22589     -614.22589      20.694815    
   1547000   1689.1575     -594.14307     -615.7588      -615.7588       21.615733    
   1548000   1620.8183     -594.68746     -615.42867     -615.42867      20.741213    
   1549000   1635.696      -593.80903     -614.74063     -614.74063      20.931599    
   1550000   1685.2127     -593.32794     -614.8932      -614.8932       21.565254    
   1551000   1628.3567     -596.17106     -617.00874     -617.00874      20.837681    
   1552000   1618.3082     -597.18472     -617.89381     -617.89381      20.709093    
   1553000   1637.2774     -594.87127     -615.82311     -615.82311      20.951837    
   1554000   1632.7693     -594.41933     -615.31348     -615.31348      20.894147    
   1555000   1630.1692     -596.52778     -617.38866     -617.38866      20.860875    
   1556000   1680.7888     -595.00033     -616.50897     -616.50897      21.508641    
   1557000   1625.9011     -594.12414     -614.9304      -614.9304       20.806257    
   1558000   1621.1613     -594.13533     -614.88094     -614.88094      20.745603    
   1559000   1625.3026     -593.80297     -614.60156     -614.60156      20.798598    
   1560000   1663.2827     -592.86838     -614.153       -614.153        21.284621    
   1561000   1599.2206     -592.85037     -613.31521     -613.31521      20.464833    
   1562000   1612.9001     -596.7178      -617.35769     -617.35769      20.639886    
   1563000   1644.6961     -597.54802     -618.59479     -618.59479      21.046771    
   1564000   1641.6215     -593.64891     -614.65634     -614.65634      21.007427    
   1565000   1613.2573     -595.76807     -616.41253     -616.41253      20.644458    
   1566000   1583.3824     -597.36638     -617.62854     -617.62854      20.262155    
   1567000   1592.2369     -596.5835      -616.95897     -616.95897      20.375465    
   1568000   1598.8375     -596.12671     -616.58664     -616.58664      20.45993     
   1569000   1613.6046     -596.64108     -617.28998     -617.28998      20.648902    
   1570000   1579.5062     -597.62233     -617.83488     -617.83488      20.212552    
   1571000   1591.9098     -595.38333     -615.75461     -615.75461      20.371279    
   1572000   1542.2588     -596.76503     -616.50093     -616.50093      19.735907    
   1573000   1556.1175     -594.08646     -613.99972     -613.99972      19.913254    
   1574000   1581.2372     -596.85033     -617.08504     -617.08504      20.234703    
   1575000   1554.3381     -597.68693     -617.57741     -617.57741      19.890483    
   1576000   1608.3855     -597.098       -617.68011     -617.68011      20.582114    
   1577000   1562.1268     -595.75008     -615.74023     -615.74023      19.990153    
   1578000   1554.8286     -598.5441      -618.44086     -618.44086      19.896759    
   1579000   1595.1924     -598.25142     -618.6647      -618.6647       20.413286    
   1580000   1591.3518     -596.02349     -616.38763     -616.38763      20.364138    
   1581000   1568.7667     -595.75701     -615.83213     -615.83213      20.075122    
   1582000   1553.7783     -597.1406      -617.02392     -617.02392      19.883319    
   1583000   1522.1031     -596.76073     -616.23871     -616.23871      19.477979    
   1584000   1525.9662     -594.2247      -613.75211     -613.75211      19.527415    
   1585000   1549.7253     -597.15724     -616.9887      -616.9887       19.831454    
   1586000   1554.7182     -596.55029     -616.44564     -616.44564      19.895346    
   1587000   1539.7095     -597.3965      -617.09978     -617.09978      19.703285    
   1588000   1537.738      -596.04804     -615.7261      -615.7261       19.678056    
   1589000   1558.053      -599.04505     -618.98307     -618.98307      19.938022    
   1590000   1552.3227     -598.48147     -618.34616     -618.34616      19.864693    
   1591000   1523.2821     -599.84995     -619.34301     -619.34301      19.493067    
   1592000   1513.5095     -600.89359     -620.2616      -620.2616       19.368009    
   1593000   1511.0728     -598.63254     -617.96937     -617.96937      19.336828    
   1594000   1562.5298     -598.24591     -618.24122     -618.24122      19.995309    
   1595000   1510.8825     -601.33853     -620.67292     -620.67292      19.334392    
   1596000   1533.76       -601.15226     -620.77941     -620.77941      19.627149    
   1597000   1509.4823     -599.83393     -619.1504      -619.1504       19.316474    
   1598000   1496.4854     -598.82371     -617.97386     -617.97386      19.150156    
   1599000   1511.4923     -599.92333     -619.26553     -619.26553      19.342196    
   1600000   1490.7321     -597.88616     -616.96269     -616.96269      19.076533    
   1601000   1450.601      -599.78196     -618.34494     -618.34494      18.562984    
   1602000   1472.2667     -597.93829     -616.77852     -616.77852      18.840236    
   1603000   1505.7908     -598.96047     -618.22971     -618.22971      19.269235    
   1604000   1501.3495     -599.75416     -618.96656     -618.96656      19.212401    
   1605000   1476.9307     -597.42936     -616.32928     -616.32928      18.899919    
   1606000   1546.0044     -601.04461     -620.82845     -620.82845      19.783838    
   1607000   1484.3515     -598.03213     -617.02701     -617.02701      18.994881    
   1608000   1458.6184     -600.4369      -619.10248     -619.10248      18.665582    
   1609000   1460.0305     -599.86512     -618.54877     -618.54877      18.683651    
   1610000   1487.2295     -598.94866     -617.98037     -617.98037      19.031711    
   1611000   1466.0722     -599.03569     -617.79666     -617.79666      18.760965    
   1612000   1459.4373     -599.66184     -618.3379      -618.3379       18.67606     
   1613000   1453.2833     -600.52835     -619.12566     -619.12566      18.597309    
   1614000   1463.5369     -600.38379     -619.11231     -619.11231      18.728523    
   1615000   1430.3611     -600.8113      -619.11528     -619.11528      18.30398     
   1616000   1517.9174     -597.71421     -617.13863     -617.13863      19.424416    
   1617000   1442.346      -597.72813     -616.18548     -616.18548      18.457347    
   1618000   1394.0979     -600.68731     -618.52723     -618.52723      17.839928    
   1619000   1464.5232     -597.64707     -616.38821     -616.38821      18.741143    
   1620000   1452.6528     -598.5951      -617.18434     -617.18434      18.589242    
   1621000   1443.623      -599.83587     -618.30956     -618.30956      18.473689    
   1622000   1445.6752     -602.71178     -621.21173     -621.21173      18.499951    
   1623000   1443.1401     -602.35177     -620.81928     -620.81928      18.467509    
   1624000   1408.1849     -598.3582      -616.37839     -616.37839      18.020196    
   1625000   1405.5607     -598.9724      -616.95901     -616.95901      17.986615    
   1626000   1428.3823     -599.03397     -617.31263     -617.31263      18.278658    
   1627000   1402.1742     -601.79314     -619.73642     -619.73642      17.943278    
   1628000   1430.0534     -600.74651     -619.04655     -619.04655      18.300042    
   1629000   1419.8254     -603.86634     -622.0355      -622.0355       18.169157    
   1630000   1408.6064     -601.71073     -619.73632     -619.73632      18.025591    
   1631000   1364.2721     -599.76836     -617.22661     -617.22661      17.458255    
   1632000   1401.6916     -598.84059     -616.77769     -616.77769      17.937103    
   1633000   1410.139      -600.64994     -618.69514     -618.69514      18.045203    
   1634000   1377.8682     -602.47004     -620.10228     -620.10228      17.632241    
   1635000   1376.4272     -601.53869     -619.15249     -619.15249      17.6138      
   1636000   1365.1145     -602.63267     -620.10171     -620.10171      17.469035    
   1637000   1426.638      -602.21819     -620.47452     -620.47452      18.256336    
   1638000   1421.6076     -599.84352     -618.03548     -618.03548      18.191963    
   1639000   1378.8974     -602.08782     -619.73323     -619.73323      17.645412    
   1640000   1379.9064     -603.75504     -621.41336     -621.41336      17.658323    
   1641000   1381.9587     -601.57179     -619.25638     -619.25638      17.684586    
   1642000   1358.2048     -603.731       -621.11161     -621.11161      17.380613    
   1643000   1361.5943     -600.13824     -617.56223     -617.56223      17.423987    
   1644000   1384.248      -597.22234     -614.93622     -614.93622      17.713882    
   1645000   1387.1017     -603.40509     -621.15549     -621.15549      17.7504      
   1646000   1355.9698     -602.99565     -620.34766     -620.34766      17.352013    
   1647000   1423.2147     -602.21263     -620.42516     -620.42516      18.212529    
   1648000   1357.8426     -602.66858     -620.04456     -620.04456      17.375978    
   1649000   1393.9248     -600.30629     -618.14401     -618.14401      17.837713    
   1650000   1324.0516     -600.79054     -617.73411     -617.73411      16.943564    
   1651000   1375.7734     -600.56054     -618.16598     -618.16598      17.605434    
   1652000   1336.4317     -601.56342     -618.6654      -618.6654       17.101988    
   1653000   1338.8935     -601.89025     -619.02374     -619.02374      17.133491    
   1654000   1341.743      -604.79785     -621.9678      -621.9678       17.169956    
   1655000   1343.9283     -603.05914     -620.25706     -620.25706      17.19792     
   1656000   1335.4786     -603.34177     -620.43156     -620.43156      17.089792    
   1657000   1298.4879     -603.14289     -619.75932     -619.75932      16.616431    
   1658000   1306.3529     -604.48343     -621.20051     -621.20051      16.717077    
   1659000   1279.0524     -604.7928      -621.16052     -621.16052      16.36772     
   1660000   1294.8137     -602.41055     -618.97997     -618.97997      16.569413    
   1661000   1322.3387     -602.01914     -618.94079     -618.94079      16.921643    
   1662000   1308.117      -603.29771     -620.03736     -620.03736      16.739652    
   1663000   1322.8333     -603.90549     -620.83347     -620.83347      16.927973    
   1664000   1303.5006     -603.32745     -620.00803     -620.00803      16.680577    
   1665000   1294.7056     -602.24004     -618.80807     -618.80807      16.568029    
   1666000   1306.9714     -604.44866     -621.17365     -621.17365      16.724992    
   1667000   1290.9739     -603.69059     -620.21086     -620.21086      16.520277    
   1668000   1307.5435     -603.17232     -619.90464     -619.90464      16.732313    
   1669000   1307.7916     -605.68257     -622.41806     -622.41806      16.735488    
   1670000   1286.1237     -602.3543      -618.81251     -618.81251      16.458209    
   1671000   1298.1383     -604.90595     -621.5179      -621.5179       16.611956    
   1672000   1276.7288     -604.7447      -621.08269     -621.08269      16.337985    
   1673000   1322.2976     -605.41201     -622.33313     -622.33313      16.921118    
   1674000   1276.4412     -602.9862      -619.3205      -619.3205       16.334304    
   1675000   1308.489      -604.60221     -621.34662     -621.34662      16.744412    
   1676000   1281.4299     -606.90608     -623.30422     -623.30422      16.398144    
   1677000   1282.5125     -606.11511     -622.52711     -622.52711      16.411998    
   1678000   1266.3352     -603.68757     -619.89255     -619.89255      16.204981    
   1679000   1233.0959     -607.33981     -623.11944     -623.11944      15.779626    
   1680000   1254.8079     -602.08663     -618.1441      -618.1441       16.057468    
   1681000   1252.5607     -603.4831      -619.51181     -619.51181      16.028712    
   1682000   1246.5681     -604.88904     -620.84106     -620.84106      15.952026    
   1683000   1226.5845     -604.04129     -619.73759     -619.73759      15.6963      
   1684000   1292.2021     -605.05648     -621.59247     -621.59247      16.535993    
   1685000   1219.6797     -603.40988     -619.01782     -619.01782      15.607942    
   1686000   1221.7696     -606.67543     -622.31011     -622.31011      15.634685    
   1687000   1253.9088     -605.96878     -622.01474     -622.01474      16.045963    
   1688000   1247.1073     -605.67311     -621.63203     -621.63203      15.958926    
   1689000   1230.3406     -606.71971     -622.46407     -622.46407      15.744366    
   1690000   1243.6049     -605.33264     -621.24675     -621.24675      15.914106    
   1691000   1210.1673     -605.01567     -620.50188     -620.50188      15.486214    
   1692000   1196.5676     -605.3905      -620.70268     -620.70268      15.312181    
   1693000   1224.1095     -603.62846     -619.29309     -619.29309      15.664629    
   1694000   1194.8057     -607.10446     -622.39409     -622.39409      15.289635    
   1695000   1219.8433     -607.3568      -622.96684     -622.96684      15.610035    
   1696000   1251.7525     -606.13895     -622.15732     -622.15732      16.018369    
   1697000   1213.85       -604.6027      -620.13604     -620.13604      15.53334     
   1698000   1212.8061     -606.38761     -621.90759     -621.90759      15.519981    
   1699000   1219.1081     -607.54913     -623.14976     -623.14976      15.600627    
   1700000   1178.6948     -607.88908     -622.97255     -622.97255      15.083468    
   1701000   1205.8399     -607.92389     -623.35473     -623.35473      15.430837    
   1702000   1187.3036     -606.07379     -621.26742     -621.26742      15.193633    
   1703000   1198.123      -605.7547      -621.08678     -621.08678      15.332085    
   1704000   1209.9522     -606.43276     -621.91622     -621.91622      15.483462    
   1705000   1195.7874     -608.65946     -623.96166     -623.96166      15.302198    
   1706000   1182.7564     -606.44981     -621.58525     -621.58525      15.135443    
   1707000   1169.1196     -607.14691     -622.10784     -622.10784      14.960937    
   1708000   1169.6753     -607.75392     -622.72196     -622.72196      14.968048    
   1709000   1193.4567     -606.36954     -621.64191     -621.64191      15.272372    
   1710000   1160.9159     -607.26724     -622.1232      -622.1232       14.855956    
   1711000   1188.1888     -609.00901     -624.21397     -624.21397      15.20496     
   1712000   1197.866      -606.88434     -622.21314     -622.21314      15.328797    
   1713000   1162.5417     -607.14708     -622.02384     -622.02384      14.876761    
   1714000   1166.9977     -608.20761     -623.14139     -623.14139      14.933782    
   1715000   1178.8358     -608.64086     -623.72613     -623.72613      15.085273    
   1716000   1154.8133     -607.79087     -622.56873     -622.56873      14.777862    
   1717000   1132.4827     -607.03724     -621.52934     -621.52934      14.492103    
   1718000   1139.8869     -609.16759     -623.75444     -623.75444      14.586852    
   1719000   1165.138      -607.67192     -622.58191     -622.58191      14.909985    
   1720000   1116.9554     -607.05722     -621.35062     -621.35062      14.293403    
   1721000   1158.3817     -607.65321     -622.47673     -622.47673      14.823526    
   1722000   1156.3591     -609.45132     -624.24896     -624.24896      14.797643    
   1723000   1125.7389     -606.57393     -620.97974     -620.97974      14.405804    
   1724000   1125.7927     -608.03832     -622.44481     -622.44481      14.406492    
   1725000   1127.795      -609.77332     -624.20543     -624.20543      14.432115    
   1726000   1133.9628     -607.13414     -621.64518     -621.64518      14.511043    
   1727000   1132.4797     -608.00673     -622.49879     -622.49879      14.492064    
   1728000   1117.3716     -608.90509     -623.20382     -623.20382      14.298729    
   1729000   1083.4931     -609.44404     -623.30923     -623.30923      13.865195    
   1730000   1097.1125     -609.55602     -623.5955      -623.5955       14.03948     
   1731000   1084.1182     -609.24        -623.1132      -623.1132       13.873195    
   1732000   1102.4376     -607.34706     -621.45468     -621.45468      14.107623    
   1733000   1107.6309     -606.44075     -620.61483     -620.61483      14.174081    
   1734000   1086.0158     -609.28818     -623.18566     -623.18566      13.897477    
   1735000   1114.3169     -608.56544     -622.82508     -622.82508      14.259639    
   1736000   1081.2417     -608.92435     -622.76074     -622.76074      13.836384    
   1737000   1074.0917     -607.46711     -621.212       -621.212        13.744888    
   1738000   1105.2149     -608.72139     -622.86456     -622.86456      14.143163    
   1739000   1079.6517     -610.25168     -624.06772     -624.06772      13.816038    
   1740000   1091.3235     -610.49656     -624.46196     -624.46196      13.965399    
   1741000   1068.151      -610.99792     -624.66679     -624.66679      13.668866    
   1742000   1096.8836     -610.25108     -624.28763     -624.28763      14.03655     
   1743000   1097.2578     -608.8306      -622.87194     -622.87194      14.041339    
   1744000   1079.982      -608.50443     -622.3247      -622.3247       13.820265    
   1745000   1065.9448     -610.79168     -624.43231     -624.43231      13.640634    
   1746000   1098.8491     -608.72372     -622.78542     -622.78542      14.061702    
   1747000   1077.3126     -611.09701     -624.88312     -624.88312      13.786104    
   1748000   1052.1159     -611.51114     -624.97481     -624.97481      13.463668    
   1749000   1040.8951     -610.55744     -623.87752     -623.87752      13.320079    
   1750000   1025.2431     -608.10383     -621.22361     -621.22361      13.119784    
   1751000   1042.7748     -608.97912     -622.32325     -622.32325      13.344133    
   1752000   1061.5326     -610.50769     -624.09186     -624.09186      13.584171    
   1753000   1050.4514     -610.82312     -624.26549     -624.26549      13.442368    
   1754000   1040.1244     -611.16475     -624.47496     -624.47496      13.310216    
   1755000   1069.5028     -612.70633     -626.39249     -626.39249      13.686164    
   1756000   1004.7942     -612.96344     -625.82154     -625.82154      12.858105    
   1757000   993.42539     -613.12551     -625.83813     -625.83813      12.712621    
   1758000   1012.4463     -612.60291     -625.55894     -625.55894      12.956027    
   1759000   1008.6044     -613.98854     -626.8954      -626.8954       12.906863    
   1760000   1036.2673     -613.42852     -626.68938     -626.68938      13.260858    
   1761000   1024.1552     -613.21665     -626.32252     -626.32252      13.105862    
   1762000   992.23429     -613.0361      -625.73348     -625.73348      12.697379    
   1763000   1007.7389     -613.94427     -626.84006     -626.84006      12.895787    
   1764000   991.13159     -613.86425     -626.54751     -626.54751      12.683267    
   1765000   1003.2497     -612.65496     -625.4933      -625.4933       12.83834     
   1766000   984.63452     -613.61271     -626.21284     -626.21284      12.600126    
   1767000   988.66542     -613.93929     -626.591       -626.591        12.651709    
   1768000   996.44012     -613.48893     -626.24013     -626.24013      12.751199    
   1769000   1009.0441     -614.14137     -627.05386     -627.05386      12.91249     
   1770000   966.6858      -613.93646     -626.3069      -626.3069       12.370441    
   1771000   976.90633     -614.67785     -627.17908     -627.17908      12.50123     
   1772000   1017.584      -613.07931     -626.10109     -626.10109      13.021773    
   1773000   1005.8771     -614.56131     -627.43328     -627.43328      12.871962    
   1774000   966.39272     -614.3294      -626.69609     -626.69609      12.36669     
   1775000   995.7114      -615.46975     -628.21162     -628.21162      12.741874    
   1776000   977.62218     -613.68496     -626.19536     -626.19536      12.510391    
   1777000   953.93403     -614.49581     -626.70307     -626.70307      12.20726     
   1778000   958.35491     -613.61337     -625.8772      -625.8772       12.263832    
   1779000   992.85042     -613.90584     -626.6111      -626.6111       12.705263    
   1780000   949.91661     -614.26377     -626.41962     -626.41962      12.155849    
   1781000   920.26939     -612.59829     -624.37475     -624.37475      11.776461    
   1782000   968.04977     -614.92184     -627.30973     -627.30973      12.387895    
   1783000   946.78468     -614.07734     -626.19311     -626.19311      12.115771    
   1784000   969.35837     -614.60224     -627.00688     -627.00688      12.404641    
   1785000   958.19671     -615.12834     -627.39015     -627.39015      12.261808    
   1786000   961.23333     -613.57885     -625.87952     -625.87952      12.300667    
   1787000   982.71114     -614.93874     -627.51426     -627.51426      12.575513    
   1788000   938.71334     -614.5965      -626.60899     -626.60899      12.012484    
   1789000   943.83257     -612.77394     -624.85194     -624.85194      12.077994    
   1790000   945.0007      -613.95575     -626.04869     -626.04869      12.092942    
   1791000   916.28459     -615.25871     -626.98418     -626.98418      11.725469    
   1792000   946.52051     -615.31632     -627.42871     -627.42871      12.11239     
   1793000   922.70182     -616.17835     -627.98594     -627.98594      11.807589    
   1794000   922.25903     -616.3215      -628.12342     -628.12342      11.801922    
   1795000   926.6128      -615.32986     -627.1875      -627.1875       11.857636    
   1796000   906.51764     -616.81408     -628.41457     -628.41457      11.600484    
   1797000   906.8993      -618.23375     -629.83912     -629.83912      11.605368    
   1798000   909.60064     -615.8784      -627.51833     -627.51833      11.639936    
   1799000   886.42626     -616.11815     -627.46152     -627.46152      11.343379    
   1800000   919.22712     -616.92834     -628.69147     -628.69147      11.763124    
   1801000   898.47566     -615.70411     -627.20169     -627.20169      11.497572    
   1802000   898.97182     -616.32856     -627.83249     -627.83249      11.503922    
   1803000   862.02421     -615.82516     -626.85627     -626.85627      11.031112    
   1804000   873.2329      -617.7494      -628.92394     -628.92394      11.174547    
   1805000   865.48482     -615.38108     -626.45648     -626.45648      11.075397    
   1806000   875.58881     -618.58623     -629.79093     -629.79093      11.204695    
   1807000   879.39157     -616.68746     -627.94082     -627.94082      11.253358    
   1808000   862.46294     -617.38264     -628.41937     -628.41937      11.036726    
   1809000   866.57735     -617.70223     -628.79161     -628.79161      11.089377    
   1810000   894.27114     -617.39774     -628.84151     -628.84151      11.443768    
   1811000   863.69087     -618.58555     -629.63799     -629.63799      11.05244     
   1812000   886.33174     -618.26233     -629.6045      -629.6045       11.342169    
   1813000   854.53332     -617.8971      -628.83236     -628.83236      10.935253    
   1814000   841.64263     -616.56513     -627.33542     -627.33542      10.770294    
   1815000   856.03325     -618.60525     -629.5597      -629.5597       10.954447    
   1816000   840.56622     -618.63665     -629.39317     -629.39317      10.756519    
   1817000   854.5256      -618.70881     -629.64396     -629.64396      10.935154    
   1818000   849.36615     -617.90639     -628.77552     -628.77552      10.86913     
   1819000   841.32696     -617.54009     -628.30635     -628.30635      10.766254    
   1820000   853.69118     -617.78205     -628.70653     -628.70653      10.924476    
   1821000   846.43365     -617.11447     -627.94607     -627.94607      10.831604    
   1822000   824.72296     -616.66493     -627.21871     -627.21871      10.553777    
   1823000   814.21721     -619.51797     -629.93731     -629.93731      10.419338    
   1824000   837.59801     -619.25173     -629.97027     -629.97027      10.718536    
   1825000   808.2291      -618.57925     -628.92196     -628.92196      10.342709    
   1826000   843.58285     -618.83812     -629.63324     -629.63324      10.795123    
   1827000   814.30093     -618.27316     -628.69357     -628.69357      10.420409    
   1828000   821.49798     -620.0373      -630.54981     -630.54981      10.512508    
   1829000   802.07926     -618.87727     -629.14128     -629.14128      10.264011    
   1830000   801.45158     -617.7623      -628.01828     -628.01828      10.255979    
   1831000   803.93205     -619.45721     -629.74493     -629.74493      10.287721    
   1832000   800.7761      -619.00249     -629.24983     -629.24983      10.247335    
   1833000   823.19933     -618.83122     -629.3655      -629.3655       10.53428     
   1834000   780.50314     -618.09278     -628.08069     -628.08069      9.987907     
   1835000   802.30376     -618.45385     -628.72073     -628.72073      10.266884    
   1836000   794.34244     -619.95315     -630.11816     -630.11816      10.165005    
   1837000   805.42315     -619.09952     -629.40632     -629.40632      10.306802    
   1838000   810.05724     -619.59692     -629.96303     -629.96303      10.366104    
   1839000   773.70743     -619.31231     -629.21325     -629.21325      9.9009439    
   1840000   784.5184      -619.95204     -629.99133     -629.99133      10.039289    
   1841000   788.56666     -620.19647     -630.28756     -630.28756      10.091094    
   1842000   777.87615     -619.68432     -629.63861     -629.63861      9.95429      
   1843000   777.36015     -620.9445      -630.89219     -630.89219      9.9476869    
   1844000   769.70683     -619.8692      -629.71895     -629.71895      9.8497492    
   1845000   746.70761     -620.23499     -629.79042     -629.79042      9.5554338    
   1846000   763.30353     -619.938       -629.70581     -629.70581      9.7678077    
   1847000   765.20686     -618.78998     -628.58214     -628.58214      9.7921642    
   1848000   767.39282     -618.06989     -627.89002     -627.89002      9.8201374    
   1849000   754.14564     -620.59059     -630.24121     -630.24121      9.6506165    
   1850000   752.68054     -620.84188     -630.47375     -630.47375      9.631868     
   1851000   751.99778     -620.302       -629.92513     -629.92513      9.6231309    
   1852000   758.34304     -621.63481     -631.33914     -631.33914      9.7043296    
   1853000   744.68566     -620.7768      -630.30636     -630.30636      9.5295595    
   1854000   744.55034     -620.39501     -629.92284     -629.92284      9.5278278    
   1855000   735.08652     -619.6356      -629.04232     -629.04232      9.4067216    
   1856000   730.00347     -621.27146     -630.61314     -630.61314      9.3416751    
   1857000   720.49298     -621.8709      -631.09088     -631.09088      9.2199717    
   1858000   736.16445     -620.38168     -629.80219     -629.80219      9.4205156    
   1859000   729.44243     -620.42912     -629.76361     -629.76361      9.3344956    
   1860000   718.17418     -622.14394     -631.33424     -631.33424      9.1902986    
   1861000   708.68118     -620.9411      -630.00992     -630.00992      9.068819     
   1862000   707.71954     -621.78458     -630.84109     -630.84109      9.056513     
   1863000   699.30263     -620.07981     -629.02861     -629.02861      8.948804     
   1864000   706.42755     -622.35666     -631.39664     -631.39664      9.0399798    
   1865000   714.92438     -621.05398     -630.2027      -630.2027       9.1487117    
   1866000   691.77278     -621.05986     -629.91231     -629.91231      8.8524464    
   1867000   711.60752     -621.39846     -630.50472     -630.50472      9.1062666    
   1868000   709.4228      -621.87522     -630.95353     -630.95353      9.0783094    
   1869000   688.62032     -621.96523     -630.77734     -630.77734      8.812105     
   1870000   715.10007     -623.07443     -632.22539     -632.22539      9.15096      
   1871000   687.97475     -622.77954     -631.58339     -631.58339      8.8038439    
   1872000   698.17128     -622.21602     -631.15035     -631.15035      8.9343264    
   1873000   676.2724      -623.02507     -631.67916     -631.67916      8.6540918    
   1874000   686.55304     -622.12836     -630.91401     -630.91401      8.7856506    
   1875000   672.76848     -623.62174     -632.23099     -632.23099      8.609253     
   1876000   685.88757     -622.63385     -631.41098     -631.41098      8.7771347    
   1877000   661.07347     -622.10425     -630.56384     -630.56384      8.4595948    
   1878000   674.62317     -622.19867     -630.83166     -630.83166      8.632987     
   1879000   669.18743     -623.63671     -632.20014     -632.20014      8.5634272    
   1880000   665.02594     -622.52245     -631.03262     -631.03262      8.5101737    
   1881000   661.05335     -622.75328     -631.21262     -631.21262      8.4593373    
   1882000   653.46635     -623.05982     -631.42207     -631.42207      8.3622484    
   1883000   665.21192     -624.14216     -632.65472     -632.65472      8.5125535    
   1884000   657.34034     -623.28401     -631.69584     -631.69584      8.4118229    
   1885000   652.3794      -621.82213     -630.17047     -630.17047      8.3483389    
   1886000   639.33793     -622.87821     -631.05966     -631.05966      8.1814505    
   1887000   629.87604     -623.93271     -631.99308     -631.99308      8.0603689    
   1888000   638.98105     -624.28771     -632.46459     -632.46459      8.1768836    
   1889000   638.99985     -622.56241     -630.73953     -630.73953      8.1771241    
   1890000   643.14488     -622.90484     -631.13501     -631.13501      8.2301671    
   1891000   631.97424     -624.31243     -632.39965     -632.39965      8.0872191    
   1892000   640.29816     -623.36849     -631.56222     -631.56222      8.1937383    
   1893000   621.16626     -623.5231      -631.47201     -631.47201      7.948912     
   1894000   620.90665     -622.76988     -630.71547     -630.71547      7.9455899    
   1895000   617.38533     -623.35792     -631.25845     -631.25845      7.9005284    
   1896000   609.59919     -623.55993     -631.36082     -631.36082      7.800891     
   1897000   617.64732     -624.67422     -632.5781      -632.5781       7.903881     
   1898000   607.0602      -622.79861     -630.56701     -630.56701      7.7684002    
   1899000   602.23685     -623.99142     -631.6981      -631.6981       7.706677     
   1900000   580.65865     -624.28234     -631.71289     -631.71289      7.4305461    
   1901000   607.0824      -624.96436     -632.73304     -632.73304      7.7686843    
   1902000   600.78009     -625.6156      -633.30364     -633.30364      7.6880352    
   1903000   609.09738     -624.61283     -632.4073      -632.4073       7.7944695    
   1904000   590.18694     -625.10977     -632.66225     -632.66225      7.5524773    
   1905000   572.22796     -624.25475     -631.57741     -631.57741      7.3226607    
   1906000   582.29785     -624.56667     -632.01819     -632.01819      7.4515225    
   1907000   565.73935     -624.32765     -631.56728     -631.56728      7.2396275    
   1908000   577.6302      -624.63456     -632.02635     -632.02635      7.3917917    
   1909000   568.63408     -625.46717     -632.74384     -632.74384      7.2766706    
   1910000   558.79546     -625.46729     -632.61805     -632.61805      7.1507682    
   1911000   575.95184     -625.66937     -633.03968     -633.03968      7.3703142    
   1912000   568.34014     -625.26691     -632.53982     -632.53982      7.2729092    
   1913000   583.07803     -624.85381     -632.31531     -632.31531      7.4615063    
   1914000   544.25256     -625.70849     -632.67316     -632.67316      6.9646663    
   1915000   542.5707      -625.9589      -632.90204     -632.90204      6.943144     
   1916000   557.74243     -624.88932     -632.02662     -632.02662      7.1372928    
   1917000   557.5824      -625.03788     -632.17312     -632.17312      7.135245     
   1918000   544.08032     -626.16327     -633.12573     -633.12573      6.9624622    
   1919000   541.05223     -625.91799     -632.84171     -632.84171      6.9237124    
   1920000   536.70418     -626.41979     -633.28786     -633.28786      6.8680715    
   1921000   529.26818     -625.79767     -632.57058     -632.57058      6.7729149    
   1922000   540.92342     -626.01497     -632.93703     -632.93703      6.9220641    
   1923000   530.829       -624.62388     -631.41677     -631.41677      6.7928884    
   1924000   531.29835     -625.65622     -632.45512     -632.45512      6.7988945    
   1925000   520.5854      -626.87599     -633.53779     -633.53779      6.6618035    
   1926000   519.04041     -626.90389     -633.54592     -633.54592      6.6420327    
   1927000   522.21942     -626.38134     -633.06405     -633.06405      6.6827136    
   1928000   504.48044     -627.25841     -633.71412     -633.71412      6.4557123    
   1929000   515.69108     -626.21228     -632.81145     -632.81145      6.599172     
   1930000   515.6429      -626.64833     -633.24688     -633.24688      6.5985556    
   1931000   500.37286     -626.77909     -633.18224     -633.18224      6.4031486    
   1932000   502.86531     -627.07703     -633.51207     -633.51207      6.4350438    
   1933000   491.09842     -626.19145     -632.47592     -632.47592      6.2844658    
   1934000   499.69053     -627.10631     -633.50072     -633.50072      6.3944169    
   1935000   484.10346     -626.95718     -633.15213     -633.15213      6.194953     
   1936000   501.21309     -627.02329     -633.43719     -633.43719      6.4139008    
   1937000   487.89222     -627.91197     -634.15541     -634.15541      6.2434369    
   1938000   493.55933     -627.44183     -633.75779     -633.75779      6.3159575    
   1939000   485.97976     -628.4176      -634.63656     -634.63656      6.2189636    
   1940000   490.47766     -627.81119     -634.08772     -634.08772      6.2765221    
   1941000   478.04585     -628.03421     -634.15164     -634.15164      6.1174353    
   1942000   477.62991     -628.48861     -634.60072     -634.60072      6.1121126    
   1943000   467.6182      -627.4197      -633.4037      -633.4037       5.9839953    
   1944000   455.96282     -628.03502     -633.86986     -633.86986      5.8348442    
   1945000   463.65493     -627.89983     -633.83311     -633.83311      5.9332783    
   1946000   469.66424     -626.15432     -632.1645      -632.1645       6.0101779    
   1947000   455.09148     -627.44979     -633.27349     -633.27349      5.8236939    
   1948000   459.22344     -626.02812     -631.90469     -631.90469      5.8765695    
   1949000   446.982       -626.75755     -632.47747     -632.47747      5.7199188    
   1950000   440.81679     -628.11332     -633.75434     -633.75434      5.6410242    
   1951000   452.06423     -628.41756     -634.20252     -634.20252      5.7849549    
   1952000   448.42605     -627.90389     -633.64228     -633.64228      5.738398     
   1953000   440.04498     -628.9143      -634.54545     -634.54545      5.6311475    
   1954000   444.04125     -628.75056     -634.43284     -634.43284      5.6822868    
   1955000   432.10834     -629.12567     -634.65525     -634.65525      5.5295843    
   1956000   422.87055     -628.92012     -634.33149     -634.33149      5.4113706    
   1957000   432.41104     -628.35701     -633.89046     -633.89046      5.5334578    
   1958000   431.17475     -629.05157     -634.56921     -634.56921      5.5176373    
   1959000   415.46708     -630.13182     -635.44845     -635.44845      5.3166301    
   1960000   406.28908     -629.58141     -634.78059     -634.78059      5.1991816    
   1961000   419.14433     -629.00001     -634.36369     -634.36369      5.363687     
   1962000   423.83879     -629.38917     -634.81293     -634.81293      5.4237609    
   1963000   407.39675     -629.1536      -634.36696     -634.36696      5.2133561    
   1964000   396.67962     -629.43135     -634.50757     -634.50757      5.0762116    
   1965000   408.04409     -629.62412     -634.84576     -634.84576      5.2216399    
   1966000   401.65108     -629.69174     -634.83157     -634.83157      5.1398302    
   1967000   397.84414     -630.20354     -635.29465     -635.29465      5.0911138    
   1968000   402.78649     -630.4517      -635.60606     -635.60606      5.1543598    
   1969000   397.01419     -630.039       -635.1195      -635.1195       5.0804931    
   1970000   387.04311     -629.66526     -634.61816     -634.61816      4.9528955    
   1971000   395.49709     -629.94938     -635.01046     -635.01046      5.0610791    
   1972000   379.66067     -629.48298     -634.3414      -634.3414       4.8584244    
   1973000   385.59305     -629.45843     -634.39277     -634.39277      4.9343395    
   1974000   363.30406     -630.19293     -634.84204     -634.84204      4.6491128    
   1975000   373.55203     -629.81641     -634.59666     -634.59666      4.7802536    
   1976000   365.07196     -630.28755     -634.95928     -634.95928      4.6717362    
   1977000   370.15861     -630.84184     -635.57867     -635.57867      4.7368288    
   1978000   356.18705     -631.20061     -635.75865     -635.75865      4.5580381    
   1979000   363.58023     -630.57284     -635.22549     -635.22549      4.6526469    
   1980000   369.41892     -630.99043     -635.7178      -635.7178       4.7273632    
   1981000   356.36553     -630.66972     -635.23004     -635.23004      4.5603222    
   1982000   360.65758     -631.18722     -635.80247     -635.80247      4.6152465    
   1983000   350.38286     -630.23884     -634.7226      -634.7226       4.4837634    
   1984000   349.75164     -630.98798     -635.46367     -635.46367      4.4756858    
   1985000   345.00944     -631.3334      -635.7484      -635.7484       4.415001     
   1986000   343.70177     -631.09203     -635.4903      -635.4903       4.3982671    
   1987000   333.82764     -631.12111     -635.39302     -635.39302      4.2719104    
   1988000   337.65535     -631.09542     -635.41631     -635.41631      4.3208926    
   1989000   327.68745     -631.96963     -636.16297     -636.16297      4.1933358    
   1990000   325.55683     -631.83118     -635.99725     -635.99725      4.1660708    
   1991000   334.30791     -631.83974     -636.1178      -636.1178       4.2780562    
   1992000   328.12297     -631.78928     -635.98819     -635.98819      4.198909     
   1993000   326.22926     -631.99834     -636.17301     -636.17301      4.1746757    
   1994000   321.91901     -631.85569     -635.97521     -635.97521      4.1195185    
   1995000   316.438       -631.91575     -635.96513     -635.96513      4.0493794    
   1996000   314.63257     -631.32819     -635.35446     -635.35446      4.0262757    
   1997000   297.84158     -631.43941     -635.25082     -635.25082      3.8114056    
   1998000   300.16128     -631.748       -635.58909     -635.58909      3.8410901    
   1999000   303.46481     -631.08826     -634.97162     -634.97162      3.8833646    
   2000000   304.08031     -632.06175     -635.953       -635.953        3.891241     
   2001000   294.92931     -631.7758      -635.54994     -635.54994      3.774138     
   2002000   294.61118     -631.89585     -635.66591     -635.66591      3.7700669    
   2003000   292.64693     -632.55098     -636.29591     -636.29591      3.7449309    
   2004000   280.31385     -632.33962     -635.92673     -635.92673      3.5871074    
   2005000   279.18735     -632.83702     -636.40971     -636.40971      3.5726919    
   2006000   294.25538     -632.73277     -636.49828     -636.49828      3.7655138    
   2007000   288.05186     -632.91026     -636.59639     -636.59639      3.6861289    
   2008000   274.27022     -632.72552     -636.23529     -636.23529      3.5097686    
   2009000   267.78914     -632.95146     -636.37829     -636.37829      3.4268318    
   2010000   265.78116     -632.82003     -636.22117     -636.22117      3.4011363    
   2011000   276.19441     -633.03407     -636.56846     -636.56846      3.5343921    
   2012000   261.51206     -632.97641     -636.32292     -636.32292      3.3465056    
   2013000   259.2309      -632.94703     -636.26435     -636.26435      3.3173141    
   2014000   250.33941     -633.60501     -636.80854     -636.80854      3.203532     
   2015000   249.75561     -633.18144     -636.3775      -636.3775       3.1960612    
   2016000   254.27547     -633.33837     -636.59227     -636.59227      3.2539007    
   2017000   250.34229     -633.49432     -636.69789     -636.69789      3.2035687    
   2018000   239.07797     -633.96502     -637.02444     -637.02444      3.0594221    
   2019000   245.70801     -633.36039     -636.50466     -636.50466      3.1442651    
   2020000   238.20998     -634.11936     -637.16767     -637.16767      3.0483146    
   2021000   237.20183     -633.73316     -636.76858     -636.76858      3.0354136    
   2022000   236.05186     -634.04666     -637.06736     -637.06736      3.0206977    
   2023000   231.05493     -634.22808     -637.18483     -637.18483      2.9567531    
   2024000   223.71603     -634.17608     -637.03892     -637.03892      2.862839     
   2025000   223.89534     -633.89534     -636.76048     -636.76048      2.8651336    
   2026000   221.45132     -634.09475     -636.92861     -636.92861      2.8338581    
   2027000   222.09232     -634.22586     -637.06792     -637.06792      2.8420609    
   2028000   216.49806     -633.76355     -636.53402     -636.53402      2.7704725    
   2029000   212.0796      -634.02152     -636.73545     -636.73545      2.7139305    
   2030000   210.08372     -634.29294     -636.98133     -636.98133      2.6883898    
   2031000   206.44063     -634.53788     -637.17965     -637.17965      2.64177      
   2032000   206.13039     -634.88631     -637.52411     -637.52411      2.6378       
   2033000   200.97821     -634.99686     -637.56873     -637.56873      2.5718687    
   2034000   196.77161     -635.12527     -637.6433      -637.6433       2.518038     
   2035000   195.63583     -635.19298     -637.69649     -637.69649      2.5035036    
   2036000   189.54771     -635.16537     -637.59097     -637.59097      2.4255955    
   2037000   187.34431     -635.256       -637.6534      -637.6534       2.3973992    
   2038000   187.75736     -635.15513     -637.55782     -637.55782      2.4026849    
   2039000   184.79074     -635.22823     -637.59295     -637.59295      2.3647217    
   2040000   181.17633     -634.73071     -637.04918     -637.04918      2.318469     
   2041000   177.5369      -635.29993     -637.57183     -637.57183      2.2718961    
   2042000   171.66572     -635.58644     -637.78321     -637.78321      2.1967641    
   2043000   173.5107      -635.60862     -637.82899     -637.82899      2.2203738    
   2044000   169.59401     -635.54339     -637.71364     -637.71364      2.1702529    
   2045000   163.75092     -635.65106     -637.74654     -637.74654      2.0954802    
   2046000   159.18039     -635.77523     -637.81223     -637.81223      2.0369924    
   2047000   158.45789     -635.85454     -637.88228     -637.88228      2.0277467    
   2048000   155.49538     -635.96595     -637.95579     -637.95579      1.9898362    
   2049000   154.12235     -636.05065     -638.02291     -638.02291      1.9722658    
   2050000   148.34369     -636.3299      -638.22822     -638.22822      1.8983178    
   2051000   144.58401     -636.40082     -638.25103     -638.25103      1.8502061    
   2052000   146.01568     -636.29043     -638.15895     -638.15895      1.8685268    
   2053000   142.39396     -636.47927     -638.30145     -638.30145      1.8221806    
   2054000   135.77258     -636.49702     -638.23447     -638.23447      1.7374483    
   2055000   136.76054     -636.46478     -638.21487     -638.21487      1.7500911    
   2056000   134.99388     -636.48022     -638.2077      -638.2077       1.7274835    
   2057000   130.87312     -636.26461     -637.93937     -637.93937      1.6747512    
   2058000   123.68008     -636.47831     -638.06101     -638.06101      1.5827036    
   2059000   119.86743     -636.25747     -637.79138     -637.79138      1.533914     
   2060000   120.03173     -636.74412     -638.28014     -638.28014      1.5360166    
   2061000   114.01915     -636.92943     -638.3885      -638.3885       1.459075     
   2062000   116.46677     -637.0004      -638.4908      -638.4908       1.4903967    
   2063000   112.55976     -637.07864     -638.51904     -638.51904      1.4403996    
   2064000   108.99524     -637.28919     -638.68398     -638.68398      1.3947854    
   2065000   103.53004     -637.24681     -638.57165     -638.57165      1.3248485    
   2066000   103.15977     -637.25262     -638.57273     -638.57273      1.3201102    
   2067000   97.422561     -637.46481     -638.7115      -638.7115       1.2466926    
   2068000   97.269373     -637.42639     -638.67112     -638.67112      1.2447323    
   2069000   91.504895     -637.51734     -638.6883      -638.6883       1.1709657    
   2070000   92.043765     -637.5917      -638.76957     -638.76957      1.1778614    
   2071000   87.569216     -637.73571     -638.85631     -638.85631      1.1206017    
   2072000   85.221541     -637.674       -638.76456     -638.76456      1.0905591    
   2073000   82.302288     -637.68915     -638.74236     -638.74236      1.0532022    
   2074000   78.225236     -637.66639     -638.66742     -638.66742      1.0010291    
   2075000   75.159917     -637.85565     -638.81745     -638.81745      0.961803     
   2076000   71.506623     -637.98425     -638.8993      -638.8993       0.91505269   
   2077000   68.811023     -637.9642      -638.84475     -638.84475      0.88055776   
   2078000   66.492358     -638.00774     -638.85862     -638.85862      0.85088637   
   2079000   63.452679     -638.08729     -638.89928     -638.89928      0.81198835   
   2080000   60.359089     -638.08503     -638.85743     -638.85743      0.77240044   
   2081000   56.068378     -638.2825      -639           -639            0.71749326   
   2082000   54.478133     -638.30605     -639.00319     -639.00319      0.69714329   
   2083000   52.810698     -638.41478     -639.09058     -639.09058      0.67580553   
   2084000   47.488633     -638.48346     -639.09116     -639.09116      0.60770037   
   2085000   44.316301     -638.55906     -639.12616     -639.12616      0.56710481   
   2086000   42.604706     -638.60938     -639.15458     -639.15458      0.54520196   
   2087000   38.877005     -638.79773     -639.29523     -639.29523      0.49749948   
   2088000   36.38696      -638.82959     -639.29523     -639.29523      0.46563498   
   2089000   33.9465       -638.98226     -639.41666     -639.41666      0.43440502   
   2090000   29.953495     -639.00991     -639.39322     -639.39322      0.38330752   
   2091000   26.665155     -639.11697     -639.4582      -639.4582       0.34122744   
   2092000   23.706491     -639.18045     -639.48382     -639.48382      0.30336614   
   2093000   21.116744     -639.27891     -639.54914     -639.54914      0.27022579   
   2094000   18.104104     -639.36149     -639.59316     -639.59316      0.23167377   
   2095000   15.228818     -639.46558     -639.66046     -639.66046      0.19487945   
   2096000   12.222948     -639.52502     -639.68143     -639.68143      0.15641406   
   2097000   9.3124504     -639.61713     -639.73629     -639.73629      0.11916914   
   2098000   6.1806857     -639.69509     -639.77419     -639.77419      0.079092717  
   2099000   3.1909366     -639.76807     -639.8089      -639.8089       0.040833632  
   2100000   0.18851152    -639.83824     -639.84065     -639.84065      0.0024123356 
   2100047   0.043226071   -639.84165     -639.84221     -639.84221      0.00055315341
Loop time of 421.456 on 1 procs for 1000000 steps with 100 atoms

Performance: 20.500 ns/day, 1.171 hours/ns, 2372.725 timesteps/s, 237.273 katom-step/s
99.9% CPU use with 1 MPI tasks x 1 OpenMP threads

MPI task timing breakdown:
Section |  min time  |  avg time  |  max time  |%varavg| %total
---------------------------------------------------------------
Pair    | 409.33     | 409.33     | 409.33     |   0.0 | 97.12
Neigh   | 3.7617     | 3.7617     | 3.7617     |   0.0 |  0.89
Comm    | 0.73497    | 0.73497    | 0.73497    |   0.0 |  0.17
Output  | 0.26825    | 0.26825    | 0.26825    |   0.0 |  0.06
Modify  | 6.6865     | 6.6865     | 6.6865     |   0.0 |  1.59
Other   |            | 0.6729     |            |       |  0.16

Nlocal:            100 ave         100 max         100 min
Histogram: 1 0 0 0 0 0 0 0 0 0
Nghost:            104 ave         104 max         104 min
Histogram: 1 0 0 0 0 0 0 0 0 0
Neighs:              0 ave           0 max           0 min
Histogram: 1 0 0 0 0 0 0 0 0 0
FullNghs:         6322 ave        6322 max        6322 min
Histogram: 1 0 0 0 0 0 0 0 0 0

Total # of neighbors = 6322
Ave neighs/atom = 63.22
Neighbor list builds = 21573
Dangerous builds = 0
write_restart 	./endconf/endconf*3.restart
System init for write_restart ...

Total wall time: 0:09:27
