LAMMPS (7 Feb 2024 - Update 1)
OMP_NUM_THREADS environment is not set. Defaulting to 1 thread. (src/comm.cpp:98)
  using 1 OpenMP thread(s) per MPI task
#============Initialization=================
units 			metal
atom_style 		atomic
boundary 		p p p

############################################
#              CLI Variables               #
############################################
variable 		seed index 200093          #
variable 		N index 100                  #
variable 		iter index 1000000         #
variable 		iterther index 100000      #
variable 		iexport index 1000         #
variable 		tempchauf index 3000       #
variable 		Tdamp index 0.001          #
variable 		timestep index 0.0001      #
variable 		box_size index 100		   #
############################################
############################################

#=========Simulation box definition=========
lattice 		sc 1.0
Lattice spacing in x,y,z = 1 1 1
region 			bigbox block 0 ${box_size} 0 ${box_size} 0 ${box_size}
region 			bigbox block 0 100 0 ${box_size} 0 ${box_size}
region 			bigbox block 0 100 0 100 0 ${box_size}
region 			bigbox block 0 100 0 100 0 100
create_box 		1 bigbox
Created orthogonal box = (0 0 0) to (100 100 100)
  1 by 1 by 1 MPI processor grid

#==================Atoms====================
#region 			safezone block 6 9 6 9 6 9 units box
create_atoms 	1 random ${N} ${seed} bigbox
create_atoms 	1 random 100 ${seed} bigbox
create_atoms 	1 random 100 200093 bigbox
Created 100 atoms
  using lattice units in orthogonal box = (0 0 0) to (100 100 100)
  create_atoms CPU = 0.000 seconds
mass 			* 12.01



#==========Velocity initialization==========
velocity 		all create 0.0000001 1563967 rot yes dist gaussian

#======Pair style for atom interactions=============
pair_style 		airebo 1.8 1 1
pair_coeff 		* * CH.airebo C
Reading airebo potential file CH.airebo with DATE: 2011-10-25

#==============Neighbor selection===================
neighbor 		0.3 bin
neigh_modify 	every 1 delay 0 check yes


#=====================Timestep======================
timestep 		${timestep}
timestep 		0.0001

#===============Define dump command=================
dump 			1 all cfg 100000 ./dump/dump.tensile_*.cfg mass type xs ys zs vx vy vz id

#========System temperature printing info===========
thermo_style 	custom step temp etotal epair pe ke
thermo 			${iexport}
thermo 			1000



#====================CRC Cycle======================

#=============Condensation et chauffe===============
fix 			1 all nve
fix 			2 all temp/berendsen 0.0 ${tempchauf} ${Tdamp}
fix 			2 all temp/berendsen 0.0 3000 ${Tdamp}
fix 			2 all temp/berendsen 0.0 3000 0.001
fix             3 all momentum 1 linear 1 1 1 angular rescale

run 			${iter}
run 			1000000
Neighbor list info ...
  update: every = 1 steps, delay = 0 steps, check = yes
  max neighbors/atom: 2000, page size: 100000
  master list distance cutoff = 8.116371
  ghost atom cutoff = 8.116371
  binsize = 4.0581855, bins = 25 25 25
  1 neighbor lists, perpetual/occasional/extra = 1 0 0
  (1) pair airebo, perpetual
      attributes: full, newton on, ghost
      pair build: full/bin/ghost
      stencil: full/ghost/bin/3d
      bin: standard
Per MPI rank memory allocation (min/avg/max) = 3.979 | 3.979 | 3.979 Mbytes
   Step          Temp          TotEng         E_pair         PotEng         KinEng    
         0   1e-07         -5.2271564     -5.2271564     -5.2271564      1.2796754e-09
      1000   2.9189007     -12.347444     -12.384797     -12.384797      0.037352455  
      2000   5.6241769     -12.27972      -12.351692     -12.351692      0.071971211  
      3000   9.4581781     -12.22431      -12.345344     -12.345344      0.12103398   
      4000   12.618717     -12.08701      -12.248489     -12.248489      0.16147862   
      5000   16.067199     -11.991057     -12.196665     -12.196665      0.205608     
      6000   15.954538     -11.944543     -12.148709     -12.148709      0.2041663    
      7000   19.58296      -11.957012     -12.20761      -12.20761       0.25059833   
      8000   34.301416     -12.00723      -12.446177     -12.446177      0.43894679   
      9000   29.06024      -17.835912     -18.207789     -18.207789      0.37187675   
     10000   29.4194       -17.845335     -18.221808     -18.221808      0.37647284   
     11000   39.923935     -17.74448      -18.255377     -18.255377      0.51089679   
     12000   33.55493      -17.760735     -18.190129     -18.190129      0.4293942    
     13000   33.327027     -17.590738     -18.017216     -18.017216      0.42647778   
     14000   37.400243     -17.453442     -17.932044     -17.932044      0.47860172   
     15000   43.33458      -17.333197     -17.887739     -17.887739      0.55454197   
     16000   47.529196     -17.230181     -17.8384       -17.8384        0.60821945   
     17000   48.526834     -17.136386     -17.757372     -17.757372      0.62098597   
     18000   46.563177     -17.087755     -17.683613     -17.683613      0.59585753   
     19000   47.7058       -17.145933     -17.756412     -17.756412      0.6104794    
     20000   60.456779     -17.194752     -17.968402     -17.968402      0.77365055   
     21000   74.49249      -16.904292     -17.857554     -17.857554      0.9532621    
     22000   56.097422     -16.707328     -17.425193     -17.425193      0.71786493   
     23000   71.369322     -16.978757     -17.892052     -17.892052      0.91329568   
     24000   71.78958      -16.43695      -17.355623     -17.355623      0.91867362   
     25000   77.213359     -16.837225     -17.825305     -17.825305      0.98808039   
     26000   66.214163     -16.309166     -17.156492     -17.156492      0.84732638   
     27000   95.833183     -16.57348      -17.799834     -17.799834      1.2263537    
     28000   75.824863     -16.564943     -17.535255     -17.535255      0.97031215   
     29000   80.640093     -16.818708     -17.85064      -17.85064       1.0319315    
     30000   92.131419     -16.905287     -18.08427      -18.08427       1.1789831    
     31000   95.496765     -17.085605     -18.307654     -18.307654      1.2220486    
     32000   92.825108     -17.000744     -18.188604     -18.188604      1.1878601    
     33000   101.72269     -17.065371     -18.367091     -18.367091      1.3017203    
     34000   99.667617     -16.995789     -18.271211     -18.271211      1.275422     
     35000   106.48647     -17.04221      -18.404892     -18.404892      1.3626812    
     36000   107.5829      -16.949037     -18.325749     -18.325749      1.376712     
     37000   110.16622     -16.990851     -18.400621     -18.400621      1.4097701    
     38000   115.87445     -16.919044     -18.401861     -18.401861      1.4828169    
     39000   115.09863     -16.891812     -18.364701     -18.364701      1.4728889    
     40000   120.5534      -16.904517     -18.447209     -18.447209      1.5426922    
     41000   123.85127     -16.821504     -18.406398     -18.406398      1.5848943    
     42000   124.26768     -16.819441     -18.409664     -18.409664      1.5902229    
     43000   130.31778     -16.797443     -18.465088     -18.465088      1.6676446    
     44000   132.01333     -16.722197     -18.411539     -18.411539      1.6893422    
     45000   133.7879      -16.722811     -18.434862     -18.434862      1.7120509    
     46000   139.28329     -16.685992     -18.468366     -18.468366      1.7823741    
     47000   140.98434     -16.616249     -18.420391     -18.420391      1.804142     
     48000   142.61434     -16.613128     -18.438128     -18.438128      1.8250007    
     49000   148.00228     -16.58603      -18.479979     -18.479979      1.8939488    
     50000   150.21745     -16.516153     -18.438449     -18.438449      1.9222958    
     51000   151.69603     -16.507532     -18.448749     -18.448749      1.9412168    
     52000   157.0121      -16.479487     -18.488733     -18.488733      2.0092453    
     53000   159.22294     -16.407883     -18.445419     -18.445419      2.0375368    
     54000   160.93304     -16.392508     -18.451928     -18.451928      2.0594206    
     55000   165.78824     -16.362581     -18.484132     -18.484132      2.1215513    
     56000   168.50863     -16.295571     -18.451934     -18.451934      2.1563635    
     57000   169.72081     -16.274047     -18.445922     -18.445922      2.1718755    
     58000   174.12131     -16.26411      -18.492297     -18.492297      2.2281876    
     59000   177.91993     -16.204294     -18.481092     -18.481092      2.2767977    
     60000   178.90569     -16.168683     -18.458096     -18.458096      2.2894121    
     61000   183.04462     -16.154736     -18.497113     -18.497113      2.3423771    
     62000   186.95888     -16.091807     -18.484274     -18.484274      2.3924669    
     63000   188.1973      -16.052971     -18.461286     -18.461286      2.4083147    
     64000   191.93991     -16.035656     -18.491864     -18.491864      2.4562079    
     65000   195.95092     -15.978946     -18.486482     -18.486482      2.5075358    
     66000   197.37515     -15.927741     -18.453502     -18.453502      2.5257613    
     67000   184.46844     -20.456444     -22.817042     -22.817042      2.3605973    
     68000   205.24381     -22.002406     -24.62886      -24.62886       2.6264546    
     69000   199.11987     -21.843855     -24.391943     -24.391943      2.5480881    
     70000   212.66519     -22.046946     -24.76837      -24.76837       2.7214242    
     71000   214.36166     -21.886106     -24.629239     -24.629239      2.7431335    
     72000   214.68148     -21.909669     -24.656895     -24.656895      2.7472261    
     73000   218.85216     -21.87898      -24.679578     -24.679578      2.8005973    
     74000   220.95397     -21.831383     -24.658877     -24.658877      2.8274937    
     75000   225.07917     -21.832343     -24.712626     -24.712626      2.8802829    
     76000   229.25552     -21.770922     -24.704648     -24.704648      2.9337266    
     77000   230.51112     -21.716679     -24.666473     -24.666473      2.9497941    
     78000   232.5723      -21.725946     -24.702116     -24.702116      2.9761706    
     79000   236.63404     -21.710241     -24.738389     -24.738389      3.0281477    
     80000   240.49886     -21.662546     -24.740151     -24.740151      3.0776049    
     81000   243.77534     -21.60989      -24.729423     -24.729423      3.1195331    
     82000   247.5598      -21.540626     -24.708588     -24.708588      3.1679619    
     83000   249.52551     -21.469394     -24.66251      -24.66251       3.1931167    
     84000   250.76633     -21.441834     -24.650829     -24.650829      3.2089951    
     85000   253.64301     -21.451849     -24.697657     -24.697657      3.2458073    
     86000   257.30225     -21.434441     -24.727074     -24.727074      3.2926337    
     87000   261.26895     -21.406214     -24.749608     -24.749608      3.3433946    
     88000   265.08478     -21.358823     -24.751048     -24.751048      3.3922249    
     89000   266.92535     -21.294104     -24.709882     -24.709882      3.4157782    
     90000   269.37253     -21.277222     -24.724316     -24.724316      3.4470942    
     91000   273.26263     -21.247384     -24.744259     -24.744259      3.4968747    
     92000   305.31072     -24.628432     -28.535418     -28.535418      3.9069863    
     93000   279.51413     -26.970903     -30.547777     -30.547777      3.5768736    
     94000   286.33199     -26.598706     -30.262826     -30.262826      3.6641201    
     95000   289.87859     -26.624492     -30.333997     -30.333997      3.7095051    
     96000   278.36538     -38.663979     -42.226153     -42.226153      3.5621734    
     97000   289.92818     -39.706695     -43.416835     -43.416835      3.7101397    
     98000   278.47084     -39.112637     -42.67616      -42.67616       3.5635229    
     99000   308.17242     -39.509926     -43.453533     -43.453533      3.9436067    
    100000   307.04154     -39.636419     -43.565554     -43.565554      3.9291352    
    101000   299.38731     -39.353781     -43.184967     -43.184967      3.8311859    
    102000   305.84582     -39.205283     -43.119116     -43.119116      3.9138338    
    103000   313.0966      -38.92855      -42.93517      -42.93517       4.0066202    
    104000   311.49572     -39.163568     -43.149703     -43.149703      3.9861343    
    105000   310.01746     -39.065448     -43.032666     -43.032666      3.9672173    
    106000   320.01668     -39.004939     -43.100114     -43.100114      4.0951748    
    107000   318.39002     -39.025889     -43.100248     -43.100248      4.0743589    
    108000   324.1519      -39.121058     -43.26915      -43.26915       4.1480922    
    109000   323.51812     -39.221184     -43.361166     -43.361166      4.139982     
    110000   329.37019     -39.178787     -43.393657     -43.393657      4.2148694    
    111000   331.30094     -45.251636     -49.491213     -49.491213      4.2395768    
    112000   346.51107     -45.110384     -49.544601     -49.544601      4.4342171    
    113000   346.56956     -45.081739     -49.516705     -49.516705      4.4349655    
    114000   338.27368     -45.206648     -49.535453     -49.535453      4.3288051    
    115000   346.10407     -45.131438     -49.560447     -49.560447      4.4290087    
    116000   350.09116     -45.047959     -49.527989     -49.527989      4.4800305    
    117000   359.36385     -44.756994     -49.355685     -49.355685      4.5986909    
    118000   351.99142     -44.621884     -49.126232     -49.126232      4.5043477    
    119000   357.94505     -44.634161     -49.214696     -49.214696      4.5805349    
    120000   360.74621     -44.868125     -49.484505     -49.484505      4.6163807    
    121000   365.77294     -44.482326     -49.163032     -49.163032      4.6807065    
    122000   362.15967     -44.54778      -49.182249     -49.182249      4.6344684    
    123000   369.39958     -44.56107      -49.288186     -49.288186      4.7271157    
    124000   369.00516     -44.631409     -49.353477     -49.353477      4.7220684    
    125000   376.99036     -44.663711     -49.487964     -49.487964      4.8242531    
    126000   387.60236     -48.207503     -53.167556     -53.167556      4.9600521    
    127000   394.23071     -50.374778     -55.419651     -55.419651      5.0448735    
    128000   395.8581      -50.594827     -55.660526     -55.660526      5.0656989    
    129000   385.20998     -50.777386     -55.706824     -55.706824      4.9294375    
    130000   386.33842     -50.506663     -55.45054      -55.45054       4.9438779    
    131000   389.56902     -50.882705     -55.867924     -55.867924      4.985219     
    132000   395.90237     -50.7411       -55.807365     -55.807365      5.0662654    
    133000   400.56528     -50.726245     -55.85218      -55.85218       5.1259355    
    134000   436.41763     -56.087766     -61.672495     -61.672495      5.5847292    
    135000   384.15667     -56.756532     -61.672491     -61.672491      4.9159586    
    136000   417.62259     -56.223332     -61.567546     -61.567546      5.3442137    
    137000   394.6722      -56.521289     -61.571812     -61.571812      5.0505232    
    138000   419.40435     -56.245278     -61.612293     -61.612293      5.3670145    
    139000   409.36601     -56.001787     -61.240343     -61.240343      5.2385562    
    140000   418.79262     -56.502123     -61.861309     -61.861309      5.3591863    
    141000   415.83484     -56.287246     -61.608582     -61.608582      5.3213364    
    142000   424.98438     -56.317799     -61.75622      -61.75622       5.4384207    
    143000   429.16467     -56.542102     -62.034017     -62.034017      5.4919148    
    144000   430.6344      -56.590597     -62.10132      -62.10132       5.5107226    
    145000   437.4184      -56.566239     -62.163775     -62.163775      5.5975358    
    146000   437.32336     -56.527232     -62.123552     -62.123552      5.5963196    
    147000   446.58648     -56.287066     -62.001923     -62.001923      5.7148575    
    148000   444.05166     -56.359588     -62.042008     -62.042008      5.68242      
    149000   453.71891     -56.042243     -61.848373     -61.848373      5.8061294    
    150000   446.16015     -55.977266     -61.686668     -61.686668      5.7094019    
    151000   448.25886     -56.162466     -61.898725     -61.898725      5.7362585    
    152000   461.12693     -56.223799     -62.124727     -62.124727      5.900928     
    153000   461.6003      -55.917159     -61.824145     -61.824145      5.9069856    
    154000   457.04036     -56.050283     -61.898916     -61.898916      5.8486333    
    155000   463.78727     -56.223405     -62.158377     -62.158377      5.9349717    
    156000   469.41475     -56.040578     -62.047563     -62.047563      6.0069853    
    157000   472.17227     -56.016955     -62.059228     -62.059228      6.0422725    
    158000   471.26703     -55.981201     -62.01189      -62.01189       6.0306884    
    159000   477.60894     -56.058113     -62.169958     -62.169958      6.1118442    
    160000   481.26713     -55.853085     -62.011742     -62.011742      6.1586572    
    161000   480.61065     -55.792937     -61.943193     -61.943193      6.1502564    
    162000   480.19513     -55.888204     -62.033143     -62.033143      6.1449391    
    163000   491.11262     -56.030628     -62.315276     -62.315276      6.2846475    
    164000   493.50374     -55.737391     -62.052637     -62.052637      6.3152462    
    165000   492.70676     -55.763058     -62.068106     -62.068106      6.3050473    
    166000   498.90989     -55.778988     -62.163416     -62.163416      6.3844273    
    167000   499.75395     -55.684214     -62.079442     -62.079442      6.3952285    
    168000   500.69474     -55.654034     -62.061302     -62.061302      6.4072676    
    169000   505.84908     -55.661726     -62.134953     -62.134953      6.4732264    
    170000   509.0218      -55.691112     -62.204939     -62.204939      6.5138269    
    171000   513.36509     -55.655911     -62.225318     -62.225318      6.569407     
    172000   513.46466     -55.539992     -62.110673     -62.110673      6.5706812    
    173000   515.50374     -55.60768      -62.204455     -62.204455      6.5967748    
    174000   523.11391     -55.524952     -62.219113     -62.219113      6.6941602    
    175000   525.78929     -55.423371     -62.151767     -62.151767      6.7283964    
    176000   524.56717     -55.387662     -62.100419     -62.100419      6.7127573    
    177000   529.24558     -55.415688     -62.188314     -62.188314      6.7726257    
    178000   533.99887     -55.372862     -62.206315     -62.206315      6.8334524    
    179000   535.18237     -55.342646     -62.191243     -62.191243      6.8485974    
    180000   538.20272     -55.346861     -62.234109     -62.234109      6.887248     
    181000   540.53907     -55.369455     -62.286601     -62.286601      6.9171457    
    182000   543.35257     -55.383574     -62.336723     -62.336723      6.9531494    
    183000   591.5947      -58.54908      -66.119572     -66.119572      7.570492     
    184000   574.26738     -60.670232     -68.018991     -68.018991      7.3487586    
    185000   546.51845     -61.43165      -68.425312     -68.425312      6.9936624    
    186000   554.53941     -60.876273     -67.972578     -67.972578      7.0963047    
    187000   556.24621     -61.04295      -68.161096     -68.161096      7.1181462    
    188000   561.48886     -60.740353     -67.925588     -67.925588      7.185235     
    189000   568.40405     -60.916506     -68.190233     -68.190233      7.273727     
    190000   572.78531     -60.949403     -68.279196     -68.279196      7.3297929    
    191000   575.04214     -60.725817     -68.08449      -68.08449       7.358673     
    192000   570.16131     -60.752453     -68.048667     -68.048667      7.2962142    
    193000   580.95508     -60.877518     -68.311857     -68.311857      7.4343394    
    194000   574.27165     -60.871306     -68.220119     -68.220119      7.3488132    
    195000   588.42063     -60.934392     -68.464267     -68.464267      7.5298743    
    196000   586.03509     -60.702246     -68.201594     -68.201594      7.4993471    
    197000   588.75166     -60.989006     -68.523117     -68.523117      7.5341104    
    198000   595.90687     -60.807449     -68.433123     -68.433123      7.6256738    
    199000   596.69955     -60.874752     -68.51057      -68.51057       7.6358176    
    200000   603.66122     -60.773041     -68.497945     -68.497945      7.7249043    
    201000   604.24696     -60.679275     -68.411675     -68.411675      7.7324       
    202000   607.81961     -60.668574     -68.446693     -68.446693      7.7781183    
    203000   608.24834     -60.592748     -68.376353     -68.376353      7.7836046    
    204000   614.43272     -60.623776     -68.486521     -68.486521      7.8627445    
    205000   620.69404     -60.414359     -68.357228     -68.357228      7.9428691    
    206000   616.15679     -60.37162      -68.256428     -68.256428      7.8848071    
    207000   621.10814     -60.450186     -68.398354     -68.398354      7.9481683    
    208000   626.11653     -60.453858     -68.466117     -68.466117      8.0122594    
    209000   632.42456     -60.356598     -68.44958      -68.44958       8.0929818    
    210000   629.97489     -60.219041     -68.280675     -68.280675      8.061634     
    211000   632.6599      -60.293993     -68.389986     -68.389986      8.0959933    
    212000   636.44268     -60.280309     -68.42471      -68.42471       8.1444006    
    213000   637.41225     -60.394028     -68.550836     -68.550836      8.156808     
    214000   648.92911     -60.301191     -68.605378     -68.605378      8.3041864    
    215000   648.2552      -60.078953     -68.374515     -68.374515      8.2955625    
    216000   647.12119     -60.115334     -68.396385     -68.396385      8.281051     
    217000   651.15449     -60.149868     -68.482532     -68.482532      8.3326641    
    218000   655.72628     -60.138923     -68.530091     -68.530091      8.3911682    
    219000   660.27931     -60.024213     -68.473645     -68.473645      8.4494322    
    220000   660.97924     -59.970795     -68.429184     -68.429184      8.4583889    
    221000   665.86113     -59.937335     -68.458196     -68.458196      8.5208614    
    222000   668.61673     -59.84364      -68.399764     -68.399764      8.5561241    
    223000   671.05224     -59.771379     -68.35867      -68.35867       8.5872907    
    224000   672.59339     -59.755435     -68.362447     -68.362447      8.6070124    
    225000   676.7029      -59.724372     -68.383973     -68.383973      8.6596008    
    226000   718.79282     -64.908247     -74.106462     -74.106462      9.1982151    
    227000   679.41724     -64.551313     -73.245649     -73.245649      8.6943355    
    228000   702.22685     -65.31623      -74.302454     -74.302454      8.9862245    
    229000   686.78721     -64.960475     -73.749122     -73.749122      8.7886472    
    230000   678.48496     -65.242661     -73.925066     -73.925066      8.6824054    
    231000   692.45135     -65.090806     -73.951936     -73.951936      8.8611298    
    232000   698.92724     -65.340634     -74.284634     -74.284634      8.9440002    
    233000   700.95678     -65.317595     -74.287567     -74.287567      8.9699717    
    234000   703.44204     -65.064953     -74.066728     -74.066728      9.001775     
    235000   708.09567     -65.092026     -74.153353     -74.153353      9.0613263    
    236000   698.95003     -65.293281     -74.237573     -74.237573      8.9442919    
    237000   721.7391      -65.169837     -74.405755     -74.405755      9.235918     
    238000   711.79566     -65.108321     -74.216996     -74.216996      9.1086742    
    239000   718.96515     -65.116736     -74.317157     -74.317157      9.2004205    
    240000   721.59766     -65.059375     -74.293483     -74.293483      9.2341081    
    241000   719.43934     -65.172588     -74.379077     -74.379077      9.2064885    
    242000   731.18254     -65.074127     -74.430891     -74.430891      9.3567633    
    243000   727.41277     -64.904956     -74.213478     -74.213478      9.3085225    
    244000   795.04564     -65.938463     -76.112466     -76.112466      10.174004    
    245000   722.64502     -70.355047     -79.602557     -79.602557      9.2475108    
    246000   733.78993     -70.123957     -79.514087     -79.514087      9.3901295    
    247000   741.88842     -69.95089      -79.444654     -79.444654      9.4937639    
    248000   753.97383     -70.115975     -79.764393     -79.764393      9.6484179    
    249000   739.00167     -70.212322     -79.669144     -79.669144      9.4568229    
    250000   758.33561     -70.680998     -80.385232     -80.385232      9.7042345    
    251000   748.71745     -70.940076     -80.521229     -80.521229      9.5811532    
    252000   755.04391     -70.478675     -80.140786     -80.140786      9.6621114    
    253000   757.74607     -70.801559     -80.498249     -80.498249      9.6966903    
    254000   760.15387     -70.823682     -80.551185     -80.551185      9.7275024    
    255000   773.38396     -70.643427     -80.540232     -80.540232      9.8968046    
    256000   765.86038     -70.610711     -80.411238     -80.411238      9.8005272    
    257000   773.94109     -70.591686     -80.49562      -80.49562       9.903934     
    258000   773.25998     -70.543913     -80.439131     -80.439131      9.895218     
    259000   782.41877     -70.480429     -80.49285      -80.49285       10.012421    
    260000   778.94571     -70.227785     -80.195762     -80.195762      9.9679769    
    261000   781.88473     -70.45249      -80.458076     -80.458076      10.005587    
    262000   785.74218     -70.404766     -80.459716     -80.459716      10.05495     
    263000   790.11769     -70.419857     -80.530799     -80.530799      10.110942    
    264000   796.33419     -70.286015     -80.476508     -80.476508      10.190493    
    265000   792.91422     -70.154649     -80.301378     -80.301378      10.146728    
    266000   794.71679     -70.426347     -80.596143     -80.596143      10.169796    
    267000   805.92509     -70.367858     -80.681083     -80.681083      10.313225    
    268000   805.60431     -70.2125       -80.52162      -80.52162       10.30912     
    269000   807.35617     -70.198575     -80.530114     -80.530114      10.331539    
    270000   811.89997     -70.16786      -80.557544     -80.557544      10.389684    
    271000   813.16728     -70.114368     -80.52027      -80.52027       10.405902    
    272000   816.97573     -70.043917     -80.498555     -80.498555      10.454638    
    273000   816.34436     -70.016991     -80.46355      -80.46355       10.446558    
    274000   792.7227      -75.755588     -85.899866     -85.899866      10.144278    
    275000   849.69389     -75.450616     -86.32394      -86.32394       10.873324    
    276000   846.26058     -75.414309     -86.243698     -86.243698      10.829389    
    277000   821.7746      -75.038158     -85.554206     -85.554206      10.516048    
    278000   819.96809     -75.575715     -86.068645     -86.068645      10.49293     
    279000   828.91203     -75.468902     -86.076286     -86.076286      10.607384    
    280000   830.96444     -75.389024     -86.022672     -86.022672      10.633648    
    281000   845.97706     -75.588082     -86.413842     -86.413842      10.825761    
    282000   844.43161     -75.765892     -86.571876     -86.571876      10.805984    
    283000   848.61796     -75.845835     -86.705391     -86.705391      10.859556    
    284000   860.70103     -75.60022      -86.6144       -86.6144        11.01418     
    285000   852.25371     -75.586517     -86.492598     -86.492598      10.906081    
    286000   863.30608     -75.429972     -86.477488     -86.477488      11.047516    
    287000   858.86102     -75.743021     -86.733655     -86.733655      10.990634    
    288000   870.52188     -75.342309     -86.482163     -86.482163      11.139855    
    289000   866.73331     -75.407765     -86.499138     -86.499138      11.091373    
    290000   897.59152     -79.665069     -91.151327     -91.151327      11.486258    
    291000   895.21448     -81.24112      -92.69696      -92.69696       11.45584     
    292000   891.41015     -81.310044     -92.717201     -92.717201      11.407157    
    293000   866.01993     -80.475782     -91.558026     -91.558026      11.082244    
    294000   881.97581     -80.632878     -91.919306     -91.919306      11.286428    
    295000   882.87573     -80.97899      -92.276934     -92.276934      11.297944    
    296000   877.88142     -80.684026     -91.918058     -91.918058      11.234033    
    297000   894.40464     -81.139776     -92.585252     -92.585252      11.445476    
    298000   900.85455     -81.058937     -92.586952     -92.586952      11.528014    
    299000   860.11679     -85.311235     -96.317939     -96.317939      11.006703    
    300000   863.62931     -85.758505     -96.810157     -96.810157      11.051652    
    301000   860.01808     -86.758899     -97.764339     -97.764339      11.00544     
    302000   912.54929     -86.069963     -97.747632     -97.747632      11.677669    
    303000   917.21881     -86.972618     -98.710042     -98.710042      11.737424    
    304000   903.34477     -86.352789     -97.91267      -97.91267       11.559881    
    305000   894.61816     -87.262272     -98.710481     -98.710481      11.448209    
    306000   912.89556     -86.984783     -98.666883     -98.666883      11.6821      
    307000   911.98422     -87.340398     -99.010836     -99.010836      11.670438    
    308000   914.75759     -87.033272     -98.7392       -98.7392        11.705928    
    309000   940.18155     -87.078681     -99.109954     -99.109954      12.031272    
    310000   933.51542     -87.096767     -99.042734     -99.042734      11.945968    
    311000   926.80803     -87.121458     -98.981592     -98.981592      11.860135    
    312000   922.5093      -92.317192     -104.12232     -104.12232      11.805125    
    313000   939.68315     -91.188812     -103.21371     -103.21371      12.024894    
    314000   930.15191     -92.033145     -103.93607     -103.93607      11.902926    
    315000   972.84412     -91.947486     -104.39673     -104.39673      12.449247    
    316000   957.25921     -92.5217       -104.77151     -104.77151      12.249811    
    317000   940.61993     -92.065378     -104.10226     -104.10226      12.036882    
    318000   954.35825     -91.869333     -104.08202     -104.08202      12.212688    
    319000   944.50294     -92.339594     -104.42617     -104.42617      12.086572    
    320000   953.1277      -92.324933     -104.52187     -104.52187      12.196941    
    321000   967.78026     -92.501001     -104.88545     -104.88545      12.384446    
    322000   966.57043     -92.90166      -105.27062     -105.27062      12.368964    
    323000   964.71563     -92.60575      -104.95098     -104.95098      12.345229    
    324000   972.16128     -92.760871     -105.20138     -105.20138      12.440509    
    325000   982.07226     -92.646965     -105.2143      -105.2143       12.567337    
    326000   981.59576     -92.658548     -105.21979     -105.21979      12.56124     
    327000   976.00161     -93.202124     -105.69178     -105.69178      12.489653    
    328000   985.09057     -92.961518     -105.56748     -105.56748      12.605962    
    329000   988.56166     -92.818383     -105.46876     -105.46876      12.650381    
    330000   992.28636     -92.928641     -105.62669     -105.62669      12.698045    
    331000   994.12048     -92.790718     -105.51223     -105.51223      12.721516    
    332000   993.57779     -92.642395     -105.35697     -105.35697      12.714571    
    333000   998.6112      -92.618968     -105.39795     -105.39795      12.778982    
    334000   1004.1922     -92.466066     -105.31647     -105.31647      12.850401    
    335000   1002.0187     -92.364187     -105.18677     -105.18677      12.822587    
    336000   1009.4717     -92.301435     -105.2194      -105.2194       12.917961    
    337000   1011.4699     -92.268335     -105.21187     -105.21187      12.943532    
    338000   1010.5785     -92.124098     -105.05622     -105.05622      12.932125    
    339000   1015.1279     -92.161889     -105.15223     -105.15223      12.990342    
    340000   1026.1095     -92.237576     -105.36845     -105.36845      13.130871    
    341000   1019.1555     -92.172291     -105.21417     -105.21417      13.041883    
    342000   1027.8396     -92.384758     -105.53777     -105.53777      13.153011    
    343000   1025.5294     -94.977582     -108.10103     -108.10103      13.123448    
    344000   1048.1542     -95.610744     -109.02372     -109.02372      13.412971    
    345000   1043.0246     -96.200589     -109.54792     -109.54792      13.347329    
    346000   1059.8888     -96.468603     -110.03174     -110.03174      13.563137    
    347000   1060.5166     -96.866882     -110.43805     -110.43805      13.571171    
    348000   1061.7513     -96.554058     -110.14103     -110.14103      13.58697     
    349000   1062.6924     -98.021229     -111.62024     -111.62024      13.599014    
    350000   1044.4547     -97.70571      -111.07134     -111.07134      13.36563     
    351000   1045.1187     -95.996413     -109.37054     -109.37054      13.374127    
    352000   1050.039      -96.709164     -110.14626     -110.14626      13.437092    
    353000   1053.2057     -97.162417     -110.64003     -110.64003      13.477615    
    354000   1104.3914     -96.802341     -110.93497     -110.93497      14.132626    
    355000   1044.9232     -100.3634      -113.73502     -113.73502      13.371625    
    356000   1055.4825     -101.74952     -115.25627     -115.25627      13.50675     
    357000   1041.132      -102.10548     -115.42859     -115.42859      13.323111    
    358000   1039.6647     -101.46893     -114.77326     -114.77326      13.304333    
    359000   1100.3661     -101.48246     -115.56358     -115.56358      14.081115    
    360000   1103.2769     -102.72669     -116.84505     -116.84505      14.118363    
    361000   1071.6392     -102.02904     -115.74254     -115.74254      13.713503    
    362000   1071.1556     -102.32385     -116.03117     -116.03117      13.707315    
    363000   1079.945      -102.40801     -116.2278      -116.2278       13.819791    
    364000   1099.0172     -103.34069     -117.40454     -117.40454      14.063853    
    365000   1099.9273     -102.88411     -116.95961     -116.95961      14.075499    
    366000   1093.8419     -102.08732     -116.08494     -116.08494      13.997626    
    367000   1101.7099     -103.25293     -117.35124     -117.35124      14.098311    
    368000   1111.8178     -103.32379     -117.55145     -117.55145      14.227659    
    369000   1100.2777     -103.00798     -117.08796     -117.08796      14.079984    
    370000   1113.4213     -102.42343     -116.67161     -116.67161      14.248178    
    371000   1116.6237     -102.23554     -116.5247      -116.5247       14.28916     
    372000   1119.9384     -102.60911     -116.94069     -116.94069      14.331576    
    373000   1125.6203     -102.5986      -117.00288     -117.00288      14.404286    
    374000   1136.6087     -106.23958     -120.78449     -120.78449      14.544903    
    375000   1145.6452     -106.82972     -121.49026     -121.49026      14.660541    
    376000   1122.6616     -107.60238     -121.96881     -121.96881      14.366425    
    377000   1157.5955     -106.88876     -121.70222     -121.70222      14.813465    
    378000   1163.502      -106.80977     -121.69882     -121.69882      14.88905     
    379000   1134.3646     -106.06051     -120.57669     -120.57669      14.516185    
    380000   1161.7313     -108.25352     -123.11991     -123.11991      14.86639     
    381000   1141.8016     -107.12225     -121.7336      -121.7336       14.611354    
    382000   1145.0731     -108.14311     -122.79633     -122.79633      14.653219    
    383000   1166.292      -107.75252     -122.67727     -122.67727      14.924752    
    384000   1139.9024     -108.36782     -122.95487     -122.95487      14.587051    
    385000   1149.0966     -108.82105     -123.52575     -123.52575      14.704706    
    386000   1097.9416     -110.30581     -124.3559      -124.3559       14.050089    
    387000   1154.2811     -113.45102     -128.22207     -128.22207      14.771052    
    388000   1154.2411     -111.2827      -126.05324     -126.05324      14.77054     
    389000   1161.3878     -114.15526     -129.01726     -129.01726      14.861994    
    390000   1145.9243     -113.27243     -127.93654     -127.93654      14.664112    
    391000   1184.6329     -112.14356     -127.30302     -127.30302      15.159456    
    392000   1192.149      -114.49192     -129.74756     -129.74756      15.255638    
    393000   1189.0529     -113.68445     -128.90047     -128.90047      15.216018    
    394000   1173.7658     -114.42087     -129.44126     -129.44126      15.020393    
    395000   1200.0542     -112.66785     -128.02465     -128.02465      15.356799    
    396000   1193.0732     -114.00482     -129.27228     -129.27228      15.267465    
    397000   1196.6969     -114.65687     -129.9707      -129.9707       15.313836    
    398000   1191.3097     -114.45709     -129.70199     -129.70199      15.244897    
    399000   1180.2334     -113.17637     -128.27953     -128.27953      15.103156    
    400000   1197.85       -113.55581     -128.8844      -128.8844       15.328592    
    401000   1213.5631     -114.45866     -129.98833     -129.98833      15.529669    
    402000   1215.4784     -114.7008      -130.25498     -130.25498      15.554178    
    403000   1199.09       -114.54081     -129.88527     -129.88527      15.34446     
    404000   1206.269      -114.46142     -129.89775     -129.89775      15.436328    
    405000   1222.7573     -113.71883     -129.36615     -129.36615      15.647325    
    406000   1214.7243     -113.7307      -129.27523     -129.27523      15.544529    
    407000   1224.2156     -114.04909     -129.71508     -129.71508      15.665986    
    408000   1224.5124     -113.63725     -129.30703     -129.30703      15.669784    
    409000   1222.3091     -113.14551     -128.7871      -128.7871       15.641589    
    410000   1234.9934     -113.93959     -129.7435      -129.7435       15.803907    
    411000   1236.7631     -114.04888     -129.87543     -129.87543      15.826554    
    412000   1234.1513     -114.23241     -130.02554     -130.02554      15.79313     
    413000   1232.9347     -113.54576     -129.32333     -129.32333      15.777562    
    414000   1242.539      -113.94066     -129.84112     -129.84112      15.900467    
    415000   1236.1301     -114.62399     -130.44244     -130.44244      15.818453    
    416000   1279.2644     -120.20973     -136.58016     -136.58016      16.370433    
    417000   1228.2517     -119.19523     -134.91287     -134.91287      15.717636    
    418000   1242.7522     -119.07205     -134.97525     -134.97525      15.903195    
    419000   1250.0962     -119.20803     -135.20521     -135.20521      15.997174    
    420000   1287.8828     -119.53135     -136.01207     -136.01207      16.48072     
    421000   1267.0982     -119.00195     -135.21669     -135.21669      16.214745    
    422000   1270.7367     -118.31349     -134.5748      -134.5748       16.261305    
    423000   1273.6161     -119.03156     -135.32972     -135.32972      16.298153    
    424000   1278.616      -118.88967     -135.2518      -135.2518       16.362135    
    425000   1267.407      -118.2638      -134.4825      -134.4825       16.218696    
    426000   1280.8386     -117.8467      -134.23728     -134.23728      16.390577    
    427000   1270.6612     -118.49608     -134.75642     -134.75642      16.260339    
    428000   1286.5432     -118.93435     -135.39793     -135.39793      16.463578    
    429000   1280.0645     -118.68627     -135.06694     -135.06694      16.380671    
    430000   1287.6621     -118.28379     -134.76169     -134.76169      16.477895    
    431000   1286.4126     -119.35832     -135.82023     -135.82023      16.461906    
    432000   1309.6111     -119.10697     -135.86574     -135.86574      16.758772    
    433000   1306.7969     -117.90207     -134.62483     -134.62483      16.722759    
    434000   1306.1305     -117.71685     -134.43108     -134.43108      16.714231    
    435000   1298.4642     -118.10043     -134.71656     -134.71656      16.616127    
    436000   1313.186      -117.8173      -134.62182     -134.62182      16.804519    
    437000   1309.5642     -118.36445     -135.12262     -135.12262      16.758171    
    438000   1323.462      -118.83799     -135.77401     -135.77401      16.936018    
    439000   1373.9166     -123.92988     -141.51156     -141.51156      17.581674    
    440000   1328.9449     -123.28638     -140.29256     -140.29256      17.006182    
    441000   1317.7368     -124.94452     -141.80728     -141.80728      16.862754    
    442000   1340.3036     -123.84467     -140.9962      -140.9962       17.151536    
    443000   1356.3244     -123.99055     -141.3471      -141.3471       17.35655     
    444000   1348.379      -123.87619     -141.13106     -141.13106      17.254875    
    445000   1333.4727     -123.14692     -140.21104     -140.21104      17.064122    
    446000   1325.2634     -123.19011     -140.14918     -140.14918      16.95907     
    447000   1340.0983     -123.41785     -140.56676     -140.56676      17.148908    
    448000   1344.9818     -123.26328     -140.47468     -140.47468      17.211402    
    449000   1358.1315     -123.45277     -140.83244     -140.83244      17.379675    
    450000   1368.5188     -123.72999     -141.24259     -141.24259      17.512599    
    451000   1349.5584     -123.57907     -140.84904     -140.84904      17.269967    
    452000   1354.4374     -124.3495      -141.6819      -141.6819       17.332403    
    453000   1360.758      -123.86214     -141.27543     -141.27543      17.413286    
    454000   1374.7654     -124.56036     -142.1529      -142.1529       17.592536    
    455000   1349.9149     -124.04526     -141.31979     -141.31979      17.274529    
    456000   1379.362      -124.74058     -142.39194     -142.39194      17.651357    
    457000   1377.1763     -123.99902     -141.6224      -141.6224       17.623386    
    458000   1377.3657     -124.04007     -141.66588     -141.66588      17.625811    
    459000   1367.0041     -123.94493     -141.43815     -141.43815      17.493215    
    460000   1383.4382     -123.74819     -141.45171     -141.45171      17.703519    
    461000   1395.8074     -123.92871     -141.79052     -141.79052      17.861805    
    462000   1387.5977     -124.22479     -141.98153     -141.98153      17.756747    
    463000   1383.3202     -124.07977     -141.78178     -141.78178      17.702009    
    464000   1395.5668     -123.8582      -141.71693     -141.71693      17.858726    
    465000   1382.4524     -123.92181     -141.61271     -141.61271      17.690904    
    466000   1401.6647     -124.21494     -142.1517      -142.1517       17.936759    
    467000   1402.407      -123.86147     -141.80773     -141.80773      17.946258    
    468000   1409.6235     -123.74367     -141.78227     -141.78227      18.038605    
    469000   1419.1886     -124.19018     -142.35118     -142.35118      18.161008    
    470000   1416.7795     -124.82003     -142.95021     -142.95021      18.130179    
    471000   1413.6644     -124.5199      -142.61021     -142.61021      18.090316    
    472000   1420.6577     -124.7905      -142.97031     -142.97031      18.179807    
    473000   1429.9946     -124.85955     -143.15884     -143.15884      18.299289    
    474000   1423.4452     -124.19594     -142.41142     -142.41142      18.215479    
    475000   1419.022      -124.54719     -142.70607     -142.70607      18.158876    
    476000   1422.0544     -124.91636     -143.11404     -143.11404      18.19768     
    477000   1427.1102     -124.49204     -142.75442     -142.75442      18.262379    
    478000   1437.8101     -123.90931     -142.30861     -142.30861      18.399303    
    479000   1438.427      -123.99591     -142.40311     -142.40311      18.407197    
    480000   1436.4827     -123.81393     -142.19625     -142.19625      18.382317    
    481000   1432.4764     -124.02491     -142.35596     -142.35596      18.331049    
    482000   1443.537      -124.34006     -142.81265     -142.81265      18.472589    
    483000   1453.3137     -123.71758     -142.31528     -142.31528      18.597699    
    484000   1440.0782     -123.73824     -142.16657     -142.16657      18.428327    
    485000   1443.7478     -124.5177      -142.99299     -142.99299      18.475286    
    486000   1459.1459     -124.00667     -142.679       -142.679        18.672332    
    487000   1460.9086     -124.04963     -142.74451     -142.74451      18.694889    
    488000   1465.2843     -123.80734     -142.55822     -142.55822      18.750884    
    489000   1460.0386     -123.67784     -142.36159     -142.36159      18.683755    
    490000   1469.5303     -124.04376     -142.84898     -142.84898      18.805219    
    491000   1475.6748     -123.86612     -142.74997     -142.74997      18.883848    
    492000   1469.7992     -123.34256     -142.15122     -142.15122      18.808659    
    493000   1472.485      -123.97436     -142.81739     -142.81739      18.843029    
    494000   1481.5412     -123.58833     -142.54725     -142.54725      18.958919    
    495000   1485.7124     -123.37123     -142.38353     -142.38353      19.012296    
    496000   1487.8705     -123.39003     -142.42994     -142.42994      19.039913    
    497000   1489.4402     -123.27023     -142.33023     -142.33023      19.060001    
    498000   1493.4653     -123.2539      -142.36541     -142.36541      19.111509    
    499000   1497.7248     -123.61166     -142.77768     -142.77768      19.166017    
    500000   1507.1628     -129.44803     -148.73482     -148.73482      19.286792    
    501000   1516.5338     -128.91399     -148.3207      -148.3207       19.406711    
    502000   1566.7085     -133.60947     -153.65825     -153.65825      20.048783    
    503000   1538.8854     -132.5084      -152.20114     -152.20114      19.692738    
    504000   1525.2915     -133.69921     -153.21799     -153.21799      19.518781    
    505000   1544.0067     -133.63506     -153.39334     -153.39334      19.758275    
    506000   1486.3426     -134.33019     -153.35055     -153.35055      19.020361    
    507000   1497.9703     -135.04196     -154.21112     -154.21112      19.169158    
    508000   1509.581      -135.37407     -154.69181     -154.69181      19.317738    
    509000   1529.8947     -134.71707     -154.29476     -154.29476      19.577686    
    510000   1529.3129     -135.23889     -154.80914     -154.80914      19.570242    
    511000   1527.5933     -135.16347     -154.7117      -154.7117       19.548236    
    512000   1535.3133     -134.48673     -154.13375     -154.13375      19.647028    
    513000   1532.278      -133.99194     -153.60012     -153.60012      19.608185    
    514000   1534.4286     -134.74817     -154.38387     -154.38387      19.635706    
    515000   1538.6409     -134.25831     -153.94791     -153.94791      19.689609    
    516000   1555.8323     -134.35523     -154.26483     -154.26483      19.909604    
    517000   1525.999      -139.40195     -158.92978     -158.92978      19.527834    
    518000   1572.9234     -139.1779      -159.30621     -159.30621      20.128314    
    519000   1575.3067     -138.35372     -158.51253     -158.51253      20.158813    
    520000   1537.4897     -140.69493     -160.3698      -160.3698       19.674878    
    521000   1576.844      -139.94451     -160.12299     -160.12299      20.178485    
    522000   1541.5558     -139.09686     -158.82377     -158.82377      19.72691     
    523000   1530.624      -142.60974     -162.19676     -162.19676      19.587019    
    524000   1569.5494     -143.66265     -163.74779     -163.74779      20.085138    
    525000   1580.9989     -144.96034     -165.19199     -165.19199      20.231654    
    526000   1575.0706     -145.70143     -165.85722     -165.85722      20.155792    
    527000   1615.0605     -144.21648     -164.88402     -164.88402      20.667533    
    528000   1513.4979     -148.85368     -168.22154     -168.22154      19.36786     
    529000   1604.6128     -148.20128     -168.73512     -168.73512      20.533836    
    530000   1615.3617     -149.48046     -170.15185     -170.15185      20.671387    
    531000   1584.8598     -148.76225     -169.04331     -169.04331      20.281062    
    532000   1609.5688     -156.36672     -176.96398     -176.96398      20.597257    
    533000   1633.4876     -153.35717     -174.26051     -174.26051      20.90334     
    534000   1550.9217     -154.79549     -174.64225     -174.64225      19.846764    
    535000   1617.9904     -154.35085     -175.05588     -175.05588      20.705025    
    536000   1633.0873     -160.71595     -181.61417     -181.61417      20.898217    
    537000   1709.7137     -164.67631     -186.5551      -186.5551       21.878786    
    538000   1559.5187     -163.37416     -183.33093     -183.33093      19.956777    
    539000   1644.7089     -164.8673      -185.91424     -185.91424      21.046936    
    540000   1623.3079     -166.93439     -187.70746     -187.70746      20.773073    
    541000   1658.0649     -167.86555     -189.0834      -189.0834       21.21785     
    542000   1624.4798     -165.98534     -186.77341     -186.77341      20.788069    
    543000   1688.3109     -164.99691     -186.60181     -186.60181      21.6049      
    544000   1618.4937     -167.34289     -188.05436     -188.05436      20.711466    
    545000   1634.2148     -167.17844     -188.09108     -188.09108      20.912645    
    546000   1658.9863     -164.4888      -185.71844     -185.71844      21.22964     
    547000   1646.228      -166.55244     -187.61882     -187.61882      21.066375    
    548000   1645.0235     -166.96201     -188.01297     -188.01297      21.050961    
    549000   1644.6664     -166.2632      -187.30959     -187.30959      21.046391    
    550000   1629.3532     -166.51355     -187.36399     -187.36399      20.850433    
    551000   1641.9972     -166.77199     -187.78422     -187.78422      21.012235    
    552000   1636.3274     -168.3264      -189.26608     -189.26608      20.93968     
    553000   1650.7507     -169.63199     -190.75624     -190.75624      21.124252    
    554000   1636.0942     -169.92517     -190.86187     -190.86187      20.936695    
    555000   1670.5083     -172.00684     -193.38392     -193.38392      21.377085    
    556000   1640.1239     -174.32819     -195.31645     -195.31645      20.988263    
    557000   1675.0963     -172.98878     -194.42457     -194.42457      21.435795    
    558000   1650.4856     -173.18671     -194.30757     -194.30757      21.120859    
    559000   1662.1252     -172.2426      -193.51241     -193.51241      21.269808    
    560000   1667.1545     -173.71923     -195.0534      -195.0534       21.334166    
    561000   1653.3381     -173.27922     -194.43658     -194.43658      21.157361    
    562000   1689.3326     -173.2011      -194.81907     -194.81907      21.617974    
    563000   1683.8181     -173.72491     -195.27232     -195.27232      21.547406    
    564000   1697.8086     -173.53906     -195.2655      -195.2655       21.72644     
    565000   1690.3044     -173.62187     -195.25228     -195.25228      21.63041     
    566000   1702.7632     -173.71068     -195.50052     -195.50052      21.789842    
    567000   1697.7317     -172.75994     -194.4854      -194.4854       21.725456    
    568000   1712.4795     -172.8731      -194.78728     -194.78728      21.914179    
    569000   1701.5441     -173.70484     -195.47908     -195.47908      21.774242    
    570000   1709.7565     -173.85407     -195.73341     -195.73341      21.879334    
    571000   1710.9726     -173.74843     -195.64332     -195.64332      21.894896    
    572000   1709.2408     -173.81909     -195.69182     -195.69182      21.872734    
    573000   1740.7293     -179.27176     -201.54745     -201.54745      22.275685    
    574000   1780.6306     -178.72799     -201.51429     -201.51429      22.786293    
    575000   1703.2982     -179.96078     -201.75747     -201.75747      21.796689    
    576000   1718.6395     -178.53243     -200.52544     -200.52544      21.993008    
    577000   1751.8074     -178.7594      -201.17684     -201.17684      22.417448    
    578000   1741.4144     -179.54945     -201.8339      -201.8339       22.284453    
    579000   1758.2857     -178.50839     -201.00874     -201.00874      22.50035     
    580000   1720.6169     -179.35464     -201.37295     -201.37295      22.018312    
    581000   1728.8904     -180.14433     -202.26852     -202.26852      22.124185    
    582000   1732.9431     -180.30462     -202.48067     -202.48067      22.176048    
    583000   1725.1068     -180.08734     -202.1631      -202.1631       22.075768    
    584000   1777.0962     -179.83184     -202.57291     -202.57291      22.741064    
    585000   1768.8258     -179.31895     -201.95418     -201.95418      22.63523     
    586000   1757.963      -178.4388      -200.93502     -200.93502      22.496221    
    587000   1721.137      -179.92655     -201.95152     -201.95152      22.024968    
    588000   1757.3069     -179.76393     -202.25175     -202.25175      22.487825    
    589000   1745.2429     -180.54269     -202.87613     -202.87613      22.333445    
    590000   1761.7086     -179.64281     -202.18696     -202.18696      22.544152    
    591000   1766.539      -179.58495     -202.19092     -202.19092      22.605966    
    592000   1766.7694     -179.86351     -202.47242     -202.47242      22.608914    
    593000   1770.688      -180.3886      -203.04766     -203.04766      22.65906     
    594000   1788.7901     -180.77398     -203.66469     -203.66469      22.890708    
    595000   1777.1697     -180.69266     -203.43466     -203.43466      22.742004    
    596000   1780.5263     -180.95038     -203.73534     -203.73534      22.784958    
    597000   1788.221      -180.04163     -202.92505     -202.92505      22.883425    
    598000   1801.7216     -180.17197     -203.22816     -203.22816      23.056189    
    599000   1795.8916     -179.46379     -202.44538     -202.44538      22.981583    
    600000   1793.9564     -180.349       -203.30581     -203.30581      22.956819    
    601000   1806.0058     -180.02336     -203.13437     -203.13437      23.111013    
    602000   1806.1339     -180.35996     -203.47261     -203.47261      23.112652    
    603000   1802.6009     -179.22955     -202.29699     -202.29699      23.067441    
    604000   1822.2559     -179.84195     -203.16091     -203.16091      23.318961    
    605000   1827.9538     -178.93549     -202.32737     -202.32737      23.391876    
    606000   1806.8178     -179.97154     -203.09295     -203.09295      23.121404    
    607000   1812.2797     -179.47537     -202.66667     -202.66667      23.191298    
    608000   1815.5311     -180.2542      -203.4871      -203.4871       23.232905    
    609000   1830.6461     -180.51649     -203.94282     -203.94282      23.426329    
    610000   1828.9725     -180.47791     -203.88282     -203.88282      23.404912    
    611000   1827.9164     -180.0647      -203.4561      -203.4561       23.391397    
    612000   1834.3776     -179.7213      -203.19538     -203.19538      23.47408     
    613000   1840.2408     -179.74965     -203.29876     -203.29876      23.54911     
    614000   1847.1499     -179.75231     -203.38983     -203.38983      23.637524    
    615000   1837.885      -179.78398     -203.30294     -203.30294      23.518963    
    616000   1842.3019     -179.27315     -202.84864     -202.84864      23.575485    
    617000   1850.3975     -179.22252     -202.9016      -202.9016       23.679082    
    618000   1944.8949     -183.82119     -208.70954     -208.70954      24.888342    
    619000   1842.1415     -185.09118     -208.66461     -208.66461      23.573432    
    620000   1863.3505     -185.52225     -209.36709     -209.36709      23.844838    
    621000   1859.9594     -184.92516     -208.72661     -208.72661      23.801443    
    622000   1873.962      -185.07491     -209.05554     -209.05554      23.980631    
    623000   1850.3755     -185.32332     -209.00212     -209.00212      23.678801    
    624000   1862.962      -183.99012     -207.82999     -207.82999      23.839867    
    625000   1865.7481     -185.2808      -209.15632     -209.15632      23.87552     
    626000   1870.3943     -185.19602     -209.13099     -209.13099      23.934976    
    627000   1890.1919     -186.04668     -210.235       -210.235        24.188321    
    628000   1874.4499     -185.08358     -209.07046     -209.07046      23.986875    
    629000   1873.6439     -186.96351     -210.94007     -210.94007      23.976561    
    630000   1938.2935     -189.23835     -214.04222     -214.04222      24.803866    
    631000   1907.9849     -190.05713     -214.47314     -214.47314      24.416014    
    632000   1929.9209     -190.99029     -215.68702     -215.68702      24.696724    
    633000   1881.9503     -190.65607     -214.73893     -214.73893      24.082856    
    634000   1875.5186     -193.07468     -217.07523     -217.07523      24.00055     
    635000   1915.9647     -193.008       -217.52613     -217.52613      24.51813     
    636000   1943.5874     -193.58049     -218.4521      -218.4521       24.87161     
    637000   1908.7881     -193.95785     -218.38414     -218.38414      24.426293    
    638000   1905.2046     -193.37408     -217.75452     -217.75452      24.380435    
    639000   1930.4663     -193.21094     -217.91464     -217.91464      24.703704    
    640000   1901.833      -195.0881      -219.4254      -219.4254       24.33729     
    641000   1902.5892     -194.90975     -219.25672     -219.25672      24.346966    
    642000   1914.0359     -195.27098     -219.76443     -219.76443      24.493447    
    643000   1953.8506     -194.40898     -219.41193     -219.41193      25.002946    
    644000   1861.0655     -198.29739     -222.11298     -222.11298      23.815599    
    645000   1979.8247     -199.94984     -225.28517     -225.28517      25.335331    
    646000   1909.8355     -199.15006     -223.58976     -223.58976      24.439696    
    647000   1971.2511     -198.9942      -224.21981     -224.21981      25.225616    
    648000   1993.7429     -199.92994     -225.44338     -225.44338      25.513438    
    649000   1937.61       -199.99399     -224.78911     -224.78911      24.795119    
    650000   1959.3247     -199.2786      -224.3516      -224.3516       25.072997    
    651000   1959.6657     -199.02905     -224.10641     -224.10641      25.07736     
    652000   1948.5068     -199.85679     -224.79135     -224.79135      24.934563    
    653000   1950.7164     -199.29673     -224.25957     -224.25957      24.962839    
    654000   1929.9054     -199.05959     -223.75611     -223.75611      24.696525    
    655000   1954.8632     -198.01029     -223.0262      -223.0262       25.015904    
    656000   1949.3629     -199.41471     -224.36022     -224.36022      24.945518    
    657000   1965.995      -201.04145     -226.19981     -226.19981      25.158355    
    658000   1973.3589     -200.16839     -225.42098     -225.42098      25.252589    
    659000   1959.4038     -200.55071     -225.62472     -225.62472      25.074009    
    660000   1972.9436     -201.92077     -227.16805     -227.16805      25.247275    
    661000   1994.2276     -199.97035     -225.48999     -225.48999      25.519641    
    662000   1983.9613     -200.03443     -225.42269     -225.42269      25.388265    
    663000   1986.1626     -201.46895     -226.88538     -226.88538      25.416435    
    664000   1982.4084     -200.15215     -225.52055     -225.52055      25.368393    
    665000   2006.5664     -199.59401     -225.27155     -225.27155      25.677538    
    666000   1978.2822     -201.4651      -226.78069     -226.78069      25.315591    
    667000   1992.0497     -199.3767      -224.86847     -224.86847      25.49177     
    668000   2022.5297     -200.70085     -226.58267     -226.58267      25.881816    
    669000   1993.857      -201.09712     -226.61202     -226.61202      25.514898    
    670000   1986.6879     -201.32519     -226.74835     -226.74835      25.423157    
    671000   2015.0987     -201.16988     -226.9566      -226.9566       25.786723    
    672000   2014.0551     -201.84621     -227.61958     -227.61958      25.773368    
    673000   2026.1289     -200.71372     -226.6416      -226.6416       25.927874    
    674000   2016.4772     -205.00419     -230.80855     -230.80855      25.804363    
    675000   2011.4369     -203.62822     -229.36808     -229.36808      25.739864    
    676000   1994.8573     -202.68296     -228.21066     -228.21066      25.527699    
    677000   2012.2721     -202.84638     -228.59693     -228.59693      25.750552    
    678000   1967.8887     -206.12346     -231.30604     -231.30604      25.182588    
    679000   2054.9606     -204.36503     -230.66186     -230.66186      26.296825    
    680000   2001.5541     -205.75352     -231.36692     -231.36692      25.613396    
    681000   2034.3946     -207.14596     -233.17961     -233.17961      26.033648    
    682000   2058.8824     -207.71956     -234.06657     -234.06657      26.347012    
    683000   2088.1624     -209.11876     -235.84046     -235.84046      26.721702    
    684000   2059.001      -206.93846     -233.28699     -233.28699      26.34853     
    685000   2078.5675     -206.97138     -233.5703      -233.5703       26.598917    
    686000   2070.5173     -209.40008     -235.89598     -235.89598      26.495901    
    687000   2083.553      -209.83647     -236.49918     -236.49918      26.662716    
    688000   2080.9819     -208.94696     -235.57678     -235.57678      26.629814    
    689000   2082.9396     -208.13683     -234.7917      -234.7917       26.654866    
    690000   2079.6929     -206.39461     -233.00793     -233.00793      26.613319    
    691000   2068.6358     -206.30555     -232.77737     -232.77737      26.471825    
    692000   2071.9209     -209.87867     -236.39253     -236.39253      26.513863    
    693000   2048.5676     -213.12174     -239.33676     -239.33676      26.215016    
    694000   2086.8343     -214.25267     -240.95738     -240.95738      26.704706    
    695000   2050.2637     -213.55312     -239.78984     -239.78984      26.23672     
    696000   2117.1838     -211.98639     -239.07947     -239.07947      27.093081    
    697000   2090.2071     -212.89497     -239.64283     -239.64283      26.747866    
    698000   2126.4568     -213.3348      -240.54655     -240.54655      27.211746    
    699000   2071.9277     -219.72286     -246.23681     -246.23681      26.51395     
    700000   2105.0071     -220.47278     -247.41004     -247.41004      26.937258    
    701000   2147.5189     -219.25961     -246.74088     -246.74088      27.481272    
    702000   2070.6906     -223.26991     -249.76802     -249.76802      26.498119    
    703000   2179.8858     -221.52522     -249.42068     -249.42068      27.895463    
    704000   2127.2766     -221.55132     -248.77356     -248.77356      27.222237    
    705000   2146.437      -222.42265     -249.89007     -249.89007      27.467427    
    706000   2113.1769     -224.00287     -251.04467     -251.04467      27.041806    
    707000   2080.2228     -223.62353     -250.24363     -250.24363      26.6201      
    708000   2215.2208     -227.36318     -255.71082     -255.71082      28.347637    
    709000   2084.8859     -229.54865     -256.22843     -256.22843      26.679772    
    710000   2077.2844     -229.45668     -256.03918     -256.03918      26.582499    
    711000   2075.6561     -230.35249     -256.91415     -256.91415      26.561661    
    712000   2098.7181     -230.03825     -256.89503     -256.89503      26.85678     
    713000   2107.2173     -235.09787     -262.06341     -262.06341      26.965542    
    714000   2158.5999     -232.19967     -259.82274     -259.82274      27.623072    
    715000   2118.3334     -236.04974     -263.15754     -263.15754      27.107793    
    716000   2147.3415     -234.37789     -261.8569      -261.8569       27.479002    
    717000   2130.54       -237.37514     -264.63913     -264.63913      27.263997    
    718000   2125.3185     -236.6713      -263.86848     -263.86848      27.197179    
    719000   2175.4348     -238.78886     -266.62736     -266.62736      27.838505    
    720000   2184.6359     -239.7547      -267.71095     -267.71095      27.956249    
    721000   2130.5425     -238.62591     -265.88994     -265.88994      27.264029    
    722000   2170.3051     -240.09851     -267.87137     -267.87137      27.772861    
    723000   2158.4485     -241.69371     -269.31485     -269.31485      27.621135    
    724000   2168.3019     -241.15462     -268.90184     -268.90184      27.747226    
    725000   2181.5718     -241.85818     -269.77522     -269.77522      27.917038    
    726000   2187.4999     -241.2564      -269.2493      -269.2493       27.992899    
    727000   2219.8766     -242.92065     -271.32787     -271.32787      28.407215    
    728000   2196.2001     -241.71838     -269.82261     -269.82261      28.104234    
    729000   2176.6558     -241.69606     -269.55019     -269.55019      27.85413     
    730000   2169.5553     -243.453       -271.21627     -271.21627      27.763266    
    731000   2185.0202     -243.70444     -271.66561     -271.66561      27.961167    
    732000   2151.0656     -243.45166     -270.97832     -270.97832      27.526658    
    733000   2179.1992     -241.87593     -269.7626      -269.7626       27.886677    
    734000   2199.1601     -242.77801     -270.92013     -270.92013      28.142111    
    735000   2192.4328     -242.54157     -270.59759     -270.59759      28.056025    
    736000   2227.5186     -242.85311     -271.35812     -271.35812      28.505009    
    737000   2224.5742     -243.12396     -271.59129     -271.59129      28.46733     
    738000   2194.3809     -243.13887     -271.21982     -271.21982      28.080954    
    739000   2203.0192     -242.85354     -271.04504     -271.04504      28.191496    
    740000   2203.1183     -242.8768      -271.06957     -271.06957      28.192764    
    741000   2214.981      -243.29956     -271.64413     -271.64413      28.344568    
    742000   2178.6764     -246.33191     -274.2119      -274.2119       27.879987    
    743000   2195.9956     -246.93353     -275.03515     -275.03515      28.101616    
    744000   2198.8606     -246.21346     -274.35174     -274.35174      28.138279    
    745000   2246.0849     -247.70128     -276.44387     -276.44387      28.742596    
    746000   2222.78       -248.3609      -276.80527     -276.80527      28.44437     
    747000   2219.9223     -250.8542      -279.262       -279.262        28.4078      
    748000   2262.3815     -249.08574     -278.03688     -278.03688      28.95114     
    749000   2235.2905     -248.96024     -277.5647      -277.5647       28.604463    
    750000   2241.6249     -247.99138     -276.67691     -276.67691      28.685524    
    751000   2285.5667     -247.94362     -277.19145     -277.19145      29.247836    
    752000   2261.2537     -249.23103     -278.16774     -278.16774      28.936708    
    753000   2258.7855     -249.58207     -278.4872      -278.4872       28.905124    
    754000   2274.453      -249.2274      -278.33301     -278.33301      29.105617    
    755000   2278.8052     -250.71011     -279.87142     -279.87142      29.16131     
    756000   2274.8258     -248.55057     -277.66096     -277.66096      29.110387    
    757000   2282.953      -250.05335     -279.26774     -279.26774      29.214388    
    758000   2272.877      -251.04654     -280.13199     -280.13199      29.085449    
    759000   2296.3852     -249.99724     -279.38352     -279.38352      29.386278    
    760000   2274.3916     -248.32795     -277.43278     -277.43278      29.10483     
    761000   2269.9015     -250.22492     -279.27229     -279.27229      29.047371    
    762000   2272.8863     -249.51762     -278.60319     -278.60319      29.085568    
    763000   2260.6801     -250.04967     -278.97904     -278.97904      28.929368    
    764000   2282.4957     -249.04508     -278.25362     -278.25362      29.208536    
    765000   2294.6862     -249.66984     -279.03437     -279.03437      29.364535    
    766000   2267.7847     -248.9329      -277.95318     -277.95318      29.020284    
    767000   2314.4369     -249.3799      -278.99718     -278.99718      29.61728     
    768000   2317.7379     -249.78488     -279.4444      -279.4444       29.659523    
    769000   2339.049      -250.21936     -280.15159     -280.15159      29.932235    
    770000   2231.9809     -254.43253     -282.99464     -282.99464      28.562111    
    771000   2250.6079     -254.52309     -283.32357     -283.32357      28.800477    
    772000   2331.5626     -253.52084     -283.35727     -283.35727      29.836434    
    773000   2278.1443     -255.21886     -284.37171     -284.37171      29.152853    
    774000   2322.4429     -261.62988     -291.34961     -291.34961      29.719731    
    775000   2265.2052     -260.34766     -289.33493     -289.33493      28.987274    
    776000   2332.1851     -261.06852     -290.91292     -290.91292      29.8444      
    777000   2297.7723     -260.80809     -290.21212     -290.21212      29.404028    
    778000   2356.1227     -260.27044     -290.42117     -290.42117      30.150724    
    779000   2340.4932     -259.6595      -289.61021     -289.61021      29.950716    
    780000   2304.6842     -260.6579      -290.15038     -290.15038      29.492477    
    781000   2324.0594     -260.20939     -289.94981     -289.94981      29.740417    
    782000   2345.4889     -261.03408     -291.04872     -291.04872      30.014646    
    783000   2331.719      -260.11501     -289.95345     -289.95345      29.838435    
    784000   2358.2191     -260.72428     -290.90183     -290.90183      30.17755     
    785000   2367.5214     -260.18658     -290.48317     -290.48317      30.29659     
    786000   2364.0685     -260.15695     -290.40935     -290.40935      30.252404    
    787000   2350.8904     -261.52894     -291.61271     -291.61271      30.083767    
    788000   2349.2442     -260.31995     -290.38265     -290.38265      30.062701    
    789000   2343.7838     -259.90068     -289.89351     -289.89351      29.992825    
    790000   2361.1245     -260.09386     -290.30859     -290.30859      30.21473     
    791000   2372.1503     -261.43852     -291.79434     -291.79434      30.355825    
    792000   2369.1356     -260.10133     -290.41858     -290.41858      30.317246    
    793000   2366.1899     -260.59032     -290.86987     -290.86987      30.279551    
    794000   2373.2876     -259.57574     -289.94611     -289.94611      30.370378    
    795000   2418.1041     -260.2381      -291.18199     -291.18199      30.943885    
    796000   2388.8903     -261.81177     -292.38181     -292.38181      30.570042    
    797000   2451.3589     -262.99985     -294.36929     -294.36929      31.369438    
    798000   2380.6634     -265.32841     -295.79317     -295.79317      30.464765    
    799000   2425.8781     -265.48358     -296.52695     -296.52695      31.043366    
    800000   2403.1061     -267.64721     -298.39917     -298.39917      30.751958    
    801000   2387.6109     -265.63655     -296.19022     -296.19022      30.55367     
    802000   2369.9589     -266.39996     -296.72774     -296.72774      30.327782    
    803000   2400.6406     -265.22849     -295.9489      -295.9489       30.720408    
    804000   2423.3324     -266.70029     -297.71108     -297.71108      31.010789    
    805000   2408.348      -266.52408     -297.34312     -297.34312      30.819038    
    806000   2424.3674     -266.52658     -297.55061     -297.55061      31.024034    
    807000   2453.5949     -267.14553     -298.54358     -298.54358      31.398051    
    808000   2421.5169     -267.19253     -298.18009     -298.18009      30.987557    
    809000   2434.4837     -267.79297     -298.94646     -298.94646      31.15349     
    810000   2424.1317     -266.56459     -297.5856      -297.5856       31.021017    
    811000   2436.384      -267.31737     -298.49517     -298.49517      31.177808    
    812000   2442.6078     -267.20356     -298.46101     -298.46101      31.257452    
    813000   2429.4041     -267.3247      -298.41319     -298.41319      31.088488    
    814000   2455.8131     -267.17932     -298.60576     -298.60576      31.426437    
    815000   2446.3998     -266.13993     -297.44591     -297.44591      31.305978    
    816000   2445.7125     -266.36407     -297.66125     -297.66125      31.297182    
    817000   2470.0332     -267.44975     -299.05816     -299.05816      31.608408    
    818000   2474.8927     -266.36576     -298.03636     -298.03636      31.670594    
    819000   2468.3538     -266.13121     -297.71812     -297.71812      31.586918    
    820000   2472.3952     -266.61987     -298.2585      -298.2585       31.638634    
    821000   2444.0693     -267.35935     -298.6355      -298.6355       31.276155    
    822000   2446.4207     -267.5225      -298.82875     -298.82875      31.306245    
    823000   2469.8929     -269.65809     -301.2647      -301.2647       31.606612    
    824000   2456.1804     -267.94781     -299.37894     -299.37894      31.431137    
    825000   2495.2301     -265.71431     -297.64516     -297.64516      31.930847    
    826000   2486.4466     -268.98375     -300.8022      -300.8022       31.818446    
    827000   2478.6489     -268.92393     -300.64259     -300.64259      31.718661    
    828000   2479.7535     -267.67443     -299.40723     -299.40723      31.732797    
    829000   2498.6166     -265.8584      -297.83258     -297.83258      31.974183    
    830000   2497.3642     -266.99344     -298.9516      -298.9516       31.958156    
    831000   2496.686      -266.04033     -297.9898      -297.9898       31.949477    
    832000   2470.0674     -266.71231     -298.32116     -298.32116      31.608846    
    833000   2499.4043     -266.31175     -298.29601     -298.29601      31.984263    
    834000   2474.4518     -266.12153     -297.78648     -297.78648      31.664951    
    835000   2513.6688     -267.89797     -300.06477     -300.06477      32.166802    
    836000   2514.7208     -266.57753     -298.7578      -298.7578       32.180265    
    837000   2498.7183     -267.38262     -299.3581      -299.3581       31.975484    
    838000   2511.1273     -267.03642     -299.1707      -299.1707       32.134279    
    839000   2521.2118     -266.11291     -298.37624     -298.37624      32.263328    
    840000   2506.2186     -267.65662     -299.72808     -299.72808      32.071464    
    841000   2530.0511     -268.3382      -300.71464     -300.71464      32.376443    
    842000   2511.9707     -267.8925      -300.03757     -300.03757      32.145072    
    843000   2505.0603     -268.09318     -300.14982     -300.14982      32.056641    
    844000   2529.5523     -268.90092     -301.27098     -301.27098      32.37006     
    845000   2523.6441     -266.95922     -299.25367     -299.25367      32.294454    
    846000   2552.9095     -267.70971     -300.37867     -300.37867      32.668956    
    847000   2536.3375     -267.88962     -300.34651     -300.34651      32.456888    
    848000   2557.0962     -267.01005     -299.73258     -299.73258      32.722531    
    849000   2552.5022     -265.36324     -298.02698     -298.02698      32.663744    
    850000   2572.6661     -265.77197     -298.69374     -298.69374      32.921776    
    851000   2584.43       -266.79024     -299.86255     -299.86255      33.072315    
    852000   2572.6898     -266.42525     -299.34733     -299.34733      32.92208     
    853000   2573.973      -266.88042     -299.81892     -299.81892      32.9385      
    854000   2576.0942     -266.8713      -299.83694     -299.83694      32.965645    
    855000   2560.8986     -267.7268      -300.49799     -300.49799      32.77119     
    856000   2580.699      -266.52032     -299.54489     -299.54489      33.024572    
    857000   2581.3238     -267.13494     -300.16751     -300.16751      33.032567    
    858000   2572.1376     -267.32804     -300.24306     -300.24306      32.915013    
    859000   2597.0488     -268.02041     -301.2542      -301.2542       33.233796    
    860000   2594.6393     -267.7264      -300.92937     -300.92937      33.202962    
    861000   2604.6077     -266.88584     -300.21637     -300.21637      33.330525    
    862000   2587.3291     -267.56652     -300.67594     -300.67594      33.109414    
    863000   2577.0117     -267.24244     -300.21982     -300.21982      32.977386    
    864000   2604.0796     -267.57131     -300.89507     -300.89507      33.323766    
    865000   2594.3139     -267.25561     -300.45441     -300.45441      33.198797    
    866000   2606.3055     -267.17009     -300.52234     -300.52234      33.352251    
    867000   2614.0319     -267.57181     -301.02293     -301.02293      33.451124    
    868000   2609.0826     -266.40609     -299.79388     -299.79388      33.38779     
    869000   2600.4928     -267.13844     -300.4163      -300.4163       33.277867    
    870000   2613.8981     -266.75337     -300.20278     -300.20278      33.449412    
    871000   2608.1023     -267.06179     -300.43704     -300.43704      33.375244    
    872000   2609.4228     -266.20342     -299.59557     -299.59557      33.392143    
    873000   2611.6444     -266.21138     -299.63196     -299.63196      33.420572    
    874000   2616.9728     -266.46428     -299.95303     -299.95303      33.488759    
    875000   2625.4348     -267.39212     -300.98916     -300.98916      33.597044    
    876000   2629.8511     -267.06783     -300.72139     -300.72139      33.653559    
    877000   2629.444      -267.40267     -301.05102     -301.05102      33.64835     
    878000   2638.1334     -268.00627     -301.76582     -301.76582      33.759545    
    879000   2619.4815     -266.70117     -300.22203     -300.22203      33.520862    
    880000   2638.5997     -266.54769     -300.3132      -300.3132       33.765512    
    881000   2642.7275     -267.22542     -301.04376     -301.04376      33.818334    
    882000   2636.1336     -267.85935     -301.59331     -301.59331      33.733954    
    883000   2661.3638     -267.7776      -301.83442     -301.83442      34.056818    
    884000   2666.2242     -267.48277     -301.60179     -301.60179      34.119016    
    885000   2668.1088     -267.90533     -302.04847     -302.04847      34.143133    
    886000   2658.7023     -266.82405     -300.84681     -300.84681      34.02276     
    887000   2638.3916     -266.51678     -300.27963     -300.27963      33.76285     
    888000   2658.8256     -266.04862     -300.07296     -300.07296      34.024338    
    889000   2650.7729     -266.64488     -300.56617     -300.56617      33.92129     
    890000   2672.2922     -266.39112     -300.58779     -300.58779      34.196666    
    891000   2665.5221     -265.81674     -299.92677     -299.92677      34.110032    
    892000   2691.5871     -264.7673      -299.21088     -299.21088      34.443579    
    893000   2689.9832     -266.16379     -300.58684     -300.58684      34.423055    
    894000   2683.5963     -266.25229     -300.59361     -300.59361      34.341323    
    895000   2672.5733     -266.39012     -300.59039     -300.59039      34.200264    
    896000   2690.6781     -265.58096     -300.01291     -300.01291      34.431946    
    897000   2690.9816     -263.75869     -298.19452     -298.19452      34.43583     
    898000   2687.3704     -265.09332     -299.48294     -299.48294      34.389619    
    899000   2710.0255     -266.93324     -301.61277     -301.61277      34.679531    
    900000   2709.4638     -267.58824     -302.26059     -302.26059      34.672342    
    901000   2694.8532     -267.47927     -301.96465     -301.96465      34.485375    
    902000   2715.9763     -266.24351     -300.99919     -300.99919      34.755682    
    903000   2703.6685     -266.00388     -300.60206     -300.60206      34.598181    
    904000   2696.2656     -265.52726     -300.03071     -300.03071      34.503448    
    905000   2737.9715     -265.84444     -300.88159     -300.88159      35.037149    
    906000   2659.7946     -267.92871     -301.96544     -301.96544      34.036738    
    907000   2697.1112     -270.00647     -304.52074     -304.52074      34.51427     
    908000   2770.4568     -271.23178     -306.68463     -306.68463      35.452855    
    909000   2714.2818     -275.31754     -310.05154     -310.05154      34.733998    
    910000   2745.7952     -273.49484     -308.6321      -308.6321       35.137266    
    911000   2768.2925     -275.79134     -311.2165      -311.2165       35.425159    
    912000   2675.6314     -274.9493      -309.1887      -309.1887       34.239397    
    913000   2739.6263     -274.39061     -309.44893     -309.44893      35.058325    
    914000   2726.79       -275.93964     -310.8337      -310.8337       34.894061    
    915000   2771.9331     -275.47647     -310.94822     -310.94822      35.471747    
    916000   2760.3288     -275.29941     -310.62266     -310.62266      35.32325     
    917000   2807.9956     -276.26199     -312.19522     -312.19522      35.93323     
    918000   2742.0602     -276.91072     -312.00019     -312.00019      35.089471    
    919000   2758.0415     -275.25029     -310.54427     -310.54427      35.29398     
    920000   2763.0353     -278.29596     -313.65385     -313.65385      35.357885    
    921000   2763.5879     -275.41139     -310.77635     -310.77635      35.364956    
    922000   2732.195      -276.77856     -311.74178     -311.74178      34.963228    
    923000   2768.8591     -275.5674      -310.99981     -310.99981      35.43241     
    924000   2750.401      -276.36606     -311.56227     -311.56227      35.196206    
    925000   2797.7204     -276.47643     -312.27818     -312.27818      35.801741    
    926000   2793.3477     -276.60115     -312.34693     -312.34693      35.745784    
    927000   2776.5654     -277.00716     -312.53818     -312.53818      35.531025    
    928000   2791.8627     -278.80722     -314.534       -314.534        35.726781    
    929000   2782.3187     -276.7576      -312.36225     -312.36225      35.604649    
    930000   2749.9419     -279.76333     -314.95366     -314.95366      35.190331    
    931000   2776.9543     -281.76314     -317.29914     -317.29914      35.536002    
    932000   2799.48       -283.02569     -318.84994     -318.84994      35.824257    
    933000   2765.6164     -281.13668     -316.52759     -316.52759      35.390914    
    934000   2834.1494     -282.74544     -319.01336     -319.01336      36.267914    
    935000   2798.9896     -282.86063     -318.67861     -318.67861      35.817982    
    936000   2800.8857     -282.35759     -318.19984     -318.19984      35.842246    
    937000   2811.4366     -283.01734     -318.9946      -318.9946       35.977264    
    938000   2841.3049     -282.12535     -318.48484     -318.48484      36.359481    
    939000   2808.667      -284.77724     -320.71907     -320.71907      35.941822    
    940000   2734.4743     -285.69215     -320.68455     -320.68455      34.992396    
    941000   2827.6855     -284.28172     -320.46692     -320.46692      36.185197    
    942000   2829.7232     -283.71381     -319.92508     -319.92508      36.211273    
    943000   2797.5535     -284.54694     -320.34654     -320.34654      35.799604    
    944000   2794.3887     -282.3936      -318.15271     -318.15271      35.759106    
    945000   2829.9638     -284.77597     -320.99032     -320.99032      36.214352    
    946000   2822.5862     -284.99874     -321.11868     -321.11868      36.119942    
    947000   2828.1965     -284.10556     -320.2973      -320.2973       36.191735    
    948000   2873.5993     -284.00372     -320.77647     -320.77647      36.772744    
    949000   2853.8027     -285.02799     -321.54741     -321.54741      36.519413    
    950000   2839.2052     -285.74103     -322.07364     -322.07364      36.332611    
    951000   2866.1621     -285.20863     -321.8862      -321.8862       36.677573    
    952000   2841.453      -284.44971     -320.81108     -320.81108      36.361375    
    953000   2844.8509     -282.79698     -319.20184     -319.20184      36.404859    
    954000   2857.6952     -287.71691     -324.28613     -324.28613      36.569223    
    955000   2831.5058     -284.64538     -320.87946     -320.87946      36.234084    
    956000   2885.8252     -283.95835     -320.88755     -320.88755      36.929196    
    957000   2878.9615     -285.91233     -322.75369     -322.75369      36.841363    
    958000   2918.852      -285.86128     -323.21311     -323.21311      37.351832    
    959000   2893.6561     -286.18142     -323.21083     -323.21083      37.029407    
    960000   2892.6244     -285.69641     -322.71261     -322.71261      37.016203    
    961000   2870.5092     -284.87354     -321.60674     -321.60674      36.733201    
    962000   2885.9473     -285.80331     -322.73407     -322.73407      36.930758    
    963000   2906.8583     -285.29758     -322.49593     -322.49593      37.198352    
    964000   2890.9948     -287.73108     -324.72643     -324.72643      36.99535     
    965000   2869.741      -289.24341     -325.96678     -325.96678      36.723371    
    966000   2917.6003     -288.38626     -325.72208     -325.72208      37.335815    
    967000   2917.3144     -288.72359     -326.05574     -326.05574      37.332156    
    968000   2930.7463     -288.45669     -325.96073     -325.96073      37.50404     
    969000   2925.5522     -287.94143     -325.37901     -325.37901      37.437572    
    970000   2906.0963     -285.72549     -322.91409     -322.91409      37.1886      
    971000   2902.2838     -288.03747     -325.17728     -325.17728      37.139813    
    972000   2931.5534     -286.62919     -324.14356     -324.14356      37.514369    
    973000   2980.2153     -293.62028     -331.75736     -331.75736      38.137083    
    974000   2923.8816     -291.50872     -328.92491     -328.92491      37.416195    
    975000   2966.4604     -288.67981     -326.64087     -326.64087      37.961065    
    976000   2969.2744     -292.24823     -330.24531     -330.24531      37.997075    
    977000   2925.1137     -292.31548     -329.74744     -329.74744      37.431962    
    978000   2928.6904     -293.3031      -330.78083     -330.78083      37.477732    
    979000   2939.1776     -293.0789      -330.69083     -330.69083      37.611934    
    980000   2928.0583     -294.45305     -331.92269     -331.92269      37.469643    
    981000   2959.3353     -291.85048     -329.72036     -329.72036      37.869886    
    982000   3002.5058     -296.58916     -335.01149     -335.01149      38.42233     
    983000   2962.9611     -294.39753     -332.31382     -332.31382      37.916285    
    984000   2955.4125     -295.8646      -333.68429     -333.68429      37.819687    
    985000   2974.6125     -300.40908     -338.47446     -338.47446      38.065385    
    986000   2968.2106     -297.61518     -335.59864     -335.59864      37.983462    
    987000   2988.5223     -295.29612     -333.53951     -333.53951      38.243386    
    988000   2942.6171     -302.16636     -339.82231     -339.82231      37.655948    
    989000   2972.2293     -302.48014     -340.51503     -340.51503      38.034888    
    990000   2952.7943     -301.07213     -338.85831     -338.85831      37.786183    
    991000   2951.3621     -303.93382     -341.70167     -341.70167      37.767856    
    992000   2937.9696     -305.98544     -343.58192     -343.58192      37.596476    
    993000   3020.5002     -301.84858     -340.50118     -340.50118      38.652599    
    994000   3002.7286     -302.53554     -340.96072     -340.96072      38.42518     
    995000   2971.6036     -302.83834     -340.86523     -340.86523      38.026882    
    996000   3011.821      -301.79049     -340.33202     -340.33202      38.541534    
    997000   2962.6539     -303.0354      -340.94775     -340.94775      37.912354    
    998000   2998.6843     -303.83645     -342.20988     -342.20988      38.373426    
    999000   3047.2477     -303.17975     -342.17463     -342.17463      38.99488     
   1000000   2989.8704     -301.72797     -339.98861     -339.98861      38.260637    
Loop time of 38.4709 on 1 procs for 1000000 steps with 100 atoms

Performance: 224.586 ns/day, 0.107 hours/ns, 25993.697 timesteps/s, 2.599 Matom-step/s
98.9% CPU use with 1 MPI tasks x 1 OpenMP threads

MPI task timing breakdown:
Section |  min time  |  avg time  |  max time  |%varavg| %total
---------------------------------------------------------------
Pair    | 21.542     | 21.542     | 21.542     |   0.0 | 56.00
Neigh   | 2.3907     | 2.3907     | 2.3907     |   0.0 |  6.21
Comm    | 1.0036     | 1.0036     | 1.0036     |   0.0 |  2.61
Output  | 0.37994    | 0.37994    | 0.37994    |   0.0 |  0.99
Modify  | 12.188     | 12.188     | 12.188     |   0.0 | 31.68
Other   |            | 0.9664     |            |       |  2.51

Nlocal:            100 ave         100 max         100 min
Histogram: 1 0 0 0 0 0 0 0 0 0
Nghost:             61 ave          61 max          61 min
Histogram: 1 0 0 0 0 0 0 0 0 0
Neighs:              0 ave           0 max           0 min
Histogram: 1 0 0 0 0 0 0 0 0 0
FullNghs:          322 ave         322 max         322 min
Histogram: 1 0 0 0 0 0 0 0 0 0

Total # of neighbors = 322
Ave neighs/atom = 3.22
Neighbor list builds = 24516
Dangerous builds = 0
write_restart 	./endconf/endconf*1.restart
System init for write_restart ...

#==============Constant Temp Phase==================

# Minimize during the constant temperature phase
min_style       sd
minimize        1.0e-5 1.0e-7 500 1000
Per MPI rank memory allocation (min/avg/max) = 6.362 | 6.362 | 6.362 Mbytes
   Step          Temp          TotEng         E_pair         PotEng         KinEng    
   1000000   2989.8704     -301.72797     -339.98861     -339.98861      38.260637    
   1000048   2989.8704     -316.49866     -354.75929     -354.75929      38.260637    
Loop time of 0.024245 on 1 procs for 48 steps with 100 atoms

83.8% CPU use with 1 MPI tasks x 1 OpenMP threads

Minimization stats:
  Stopping criterion = energy tolerance
  Energy initial, next-to-last, final = 
     -339.988607244875  -354.755903780891  -354.759293464305
  Force two-norm initial, final = 30.832983 4.0806933
  Force max component initial, final = 7.0066308 1.415228
  Final line search alpha, max atom move = 0.3682608 0.521173
  Iterations, force evaluations = 48 100

MPI task timing breakdown:
Section |  min time  |  avg time  |  max time  |%varavg| %total
---------------------------------------------------------------
Pair    | 0.0058568  | 0.0058568  | 0.0058568  |   0.0 | 24.16
Neigh   | 0.012848   | 0.012848   | 0.012848   |   0.0 | 52.99
Comm    | 0.00016045 | 0.00016045 | 0.00016045 |   0.0 |  0.66
Output  | 0          | 0          | 0          |   0.0 |  0.00
Modify  | 0          | 0          | 0          |   0.0 |  0.00
Other   |            | 0.00538    |            |       | 22.19

Nlocal:            100 ave         100 max         100 min
Histogram: 1 0 0 0 0 0 0 0 0 0
Nghost:             61 ave          61 max          61 min
Histogram: 1 0 0 0 0 0 0 0 0 0
Neighs:              0 ave           0 max           0 min
Histogram: 1 0 0 0 0 0 0 0 0 0
FullNghs:          322 ave         322 max         322 min
Histogram: 1 0 0 0 0 0 0 0 0 0

Total # of neighbors = 322
Ave neighs/atom = 3.22
Neighbor list builds = 35
Dangerous builds = 0

unfix 			2
fix 			4 all temp/berendsen ${tempchauf} ${tempchauf} ${Tdamp}
fix 			4 all temp/berendsen 3000 ${tempchauf} ${Tdamp}
fix 			4 all temp/berendsen 3000 3000 ${Tdamp}
fix 			4 all temp/berendsen 3000 3000 0.001

run 			${iterther}
run 			100000
Per MPI rank memory allocation (min/avg/max) = 5.237 | 5.237 | 5.237 Mbytes
   Step          Temp          TotEng         E_pair         PotEng         KinEng    
   1000048   2989.8704     -316.49866     -354.75929     -354.75929      38.260637    
   1001000   2995.6547     -308.23348     -346.56814     -346.56814      38.334657    
   1002000   3043.7005     -306.60934     -345.55882     -345.55882      38.949488    
   1003000   3007.7996     -306.9446      -345.43467     -345.43467      38.490072    
   1004000   3017.697      -307.75189     -346.36862     -346.36862      38.616728    
   1005000   2992.2874     -307.78639     -346.07796     -346.07796      38.291567    
   1006000   3002.2757     -307.88006     -346.29944     -346.29944      38.419385    
   1007000   2980.6384     -307.0632      -345.2057      -345.2057       38.142498    
   1008000   3002.086      -309.60503     -348.02199     -348.02199      38.416957    
   1009000   2974.5293     -310.2202      -348.28452     -348.28452      38.064321    
   1010000   2991.4511     -310.47049     -348.75136     -348.75136      38.280866    
   1011000   2994.8261     -309.19916     -347.52322     -347.52322      38.324053    
   1012000   3005.4638     -307.83307     -346.29325     -346.29325      38.460182    
   1013000   2971.6441     -308.63996     -346.66736     -346.66736      38.0274      
   1014000   2979.866      -309.6906      -347.82321     -347.82321      38.132613    
   1015000   3016.9348     -309.18178     -347.78875     -347.78875      38.606974    
   1016000   2985.9672     -309.2216      -347.43229     -347.43229      38.210689    
   1017000   3016.6561     -308.6519      -347.2553      -347.2553       38.603408    
   1018000   3001.521      -309.91834     -348.32806     -348.32806      38.409727    
   1019000   3019.5356     -309.2994      -347.93966     -347.93966      38.640255    
   1020000   3003.5872     -309.28667     -347.72284     -347.72284      38.436168    
   1021000   3006.1587     -308.49988     -346.96896     -346.96896      38.469074    
   1022000   2989.9086     -309.56966     -347.83078     -347.83078      38.261126    
   1023000   3002.4337     -310.31986     -348.74126     -348.74126      38.421406    
   1024000   3026.4079     -310.11594     -348.84414     -348.84414      38.728198    
   1025000   2992.7278     -308.3307      -346.6279      -346.6279       38.297202    
   1026000   3041.9176     -314.07545     -353.00212     -353.00212      38.926672    
   1027000   3028.5299     -313.3327      -352.08805     -352.08805      38.755353    
   1028000   3031.9077     -313.02569     -351.82427     -351.82427      38.798578    
   1029000   3002.6694     -315.54564     -353.97007     -353.97007      38.424422    
   1030000   3012.3219     -318.17833     -356.72628     -356.72628      38.547944    
   1031000   2952.2644     -316.90949     -354.68889     -354.68889      37.779402    
   1032000   2999.9978     -314.26241     -352.65265     -352.65265      38.390235    
   1033000   2998.0952     -315.70913     -354.07502     -354.07502      38.365887    
   1034000   2975.6964     -316.88405     -354.9633      -354.9633       38.079255    
   1035000   3032.4574     -317.06056     -355.86617     -355.86617      38.805613    
   1036000   2988.7227     -317.67339     -355.91934     -355.91934      38.24595     
   1037000   2975.9656     -316.41663     -354.49933     -354.49933      38.0827      
   1038000   2992.8247     -314.50412     -352.80256     -352.80256      38.298442    
   1039000   2992.5894     -317.19844     -355.49387     -355.49387      38.295432    
   1040000   3032.5239     -317.75277     -356.55923     -356.55923      38.806463    
   1041000   3050.3974     -318.96444     -357.99963     -357.99963      39.035186    
   1042000   2985.974      -321.65225     -359.86303     -359.86303      38.210776    
   1043000   2957.0808     -318.19125     -356.03228     -356.03228      37.841036    
   1044000   2966.0282     -320.75647     -358.71201     -358.71201      37.955535    
   1045000   2985.9961     -321.0527      -359.26376     -359.26376      38.211058    
   1046000   2983.4613     -320.85518     -359.0338      -359.0338       38.178621    
   1047000   3006.8595     -320.75475     -359.23279     -359.23279      38.478043    
   1048000   2985.5815     -321.1762      -359.38196     -359.38196      38.205753    
   1049000   3035.5621     -319.49171     -358.33705     -358.33705      38.845342    
   1050000   3038.2504     -321.66337     -360.54312     -360.54312      38.879744    
   1051000   2985.9223     -319.71863     -357.92874     -357.92874      38.210114    
   1052000   3014.5746     -320.97848     -359.55525     -359.55525      38.57677     
   1053000   2958.2203     -321.30357     -359.15919     -359.15919      37.855618    
   1054000   2998.7475     -322.63412     -361.00835     -361.00835      38.374235    
   1055000   3000.9616     -323.23417     -361.63674     -361.63674      38.402568    
   1056000   3010.4698     -323.2989      -361.82314     -361.82314      38.524242    
   1057000   2972.0629     -322.75542     -360.78818     -360.78818      38.032759    
   1058000   2994.275      -325.28978     -363.60678     -363.60678      38.317002    
   1059000   3003.5911     -322.74316     -361.17938     -361.17938      38.436217    
   1060000   3024.0489     -323.5008      -362.19881     -362.19881      38.698011    
   1061000   2974.847      -321.55483     -359.62322     -359.62322      38.068386    
   1062000   3025.4082     -324.05236     -362.76776     -362.76776      38.715406    
   1063000   3013.3198     -324.70606     -363.26677     -363.26677      38.560714    
   1064000   2991.9912     -324.42795     -362.71573     -362.71573      38.287777    
   1065000   2988.9253     -321.9585      -360.20704     -360.20704      38.248543    
   1066000   3013.4132     -322.74089     -361.30279     -361.30279      38.561909    
   1067000   3004.4475     -323.81931     -362.26649     -362.26649      38.447176    
   1068000   3005.889      -324.25553     -362.72115     -362.72115      38.465623    
   1069000   2981.2357     -324.1439      -362.29404     -362.29404      38.150141    
   1070000   3072.5883     -325.22685     -364.54601     -364.54601      39.319158    
   1071000   3026.3095     -323.97038     -362.69731     -362.69731      38.726939    
   1072000   2986.2952     -326.60492     -364.81981     -364.81981      38.214887    
   1073000   2974.5731     -323.66199     -361.72687     -361.72687      38.064882    
   1074000   3010.5855     -325.18213     -363.70786     -363.70786      38.525723    
   1075000   3005.4509     -325.08581     -363.54583     -363.54583      38.460017    
   1076000   2972.3146     -324.9918      -363.02778     -363.02778      38.03598     
   1077000   2984.1831     -326.77967     -364.96752     -364.96752      38.187858    
   1078000   3032.6868     -327.01151     -365.82006     -365.82006      38.808548    
   1079000   2993.0593     -327.53814     -365.83958     -365.83958      38.301444    
   1080000   2969.9949     -326.51475     -364.52105     -364.52105      38.006295    
   1081000   2977.6123     -327.16104     -365.26481     -365.26481      38.103773    
   1082000   2982.7585     -328.23447     -366.4041      -366.4041       38.169628    
   1083000   3000.9981     -325.56437     -363.96741     -363.96741      38.403036    
   1084000   2983.8215     -327.17192     -365.35515     -365.35515      38.183231    
   1085000   3019.7605     -327.11766     -365.76079     -365.76079      38.643134    
   1086000   2980.5425     -327.19652     -365.33779     -365.33779      38.14127     
   1087000   2986.031      -328.41999     -366.6315      -366.6315       38.211505    
   1088000   2993.1953     -328.26063     -366.56382     -366.56382      38.303185    
   1089000   3040.8791     -329.65898     -368.57236     -368.57236      38.913383    
   1090000   2989.6245     -328.11969     -366.37718     -366.37718      38.25749     
   1091000   3003.9658     -327.09757     -365.53858     -365.53858      38.441012    
   1092000   2987.1833     -329.83279     -368.05904     -368.05904      38.226251    
   1093000   2983.2475     -329.10267     -367.27855     -367.27855      38.175885    
   1094000   3001.3361     -328.83352     -367.24088     -367.24088      38.407361    
   1095000   3002.7        -327.55058     -365.9754      -365.9754       38.424814    
   1096000   3010.6994     -329.22222     -367.7494      -367.7494       38.527181    
   1097000   3007.4032     -329.72825     -368.21325     -368.21325      38.485       
   1098000   2981.6241     -329.04804     -367.20315     -367.20315      38.155111    
   1099000   2976.7911     -329.76009     -367.85336     -367.85336      38.093264    
   1100000   2996.9361     -328.99429     -367.34535     -367.34535      38.351056    
   1100048   3000.8899     -328.76977     -367.17142     -367.17142      38.401651    
Loop time of 6.76274 on 1 procs for 100000 steps with 100 atoms

Performance: 127.759 ns/day, 0.188 hours/ns, 14786.909 timesteps/s, 1.479 Matom-step/s
99.7% CPU use with 1 MPI tasks x 1 OpenMP threads

MPI task timing breakdown:
Section |  min time  |  avg time  |  max time  |%varavg| %total
---------------------------------------------------------------
Pair    | 5.2778     | 5.2778     | 5.2778     |   0.0 | 78.04
Neigh   | 0.30256    | 0.30256    | 0.30256    |   0.0 |  4.47
Comm    | 0.075296   | 0.075296   | 0.075296   |   0.0 |  1.11
Output  | 0.030829   | 0.030829   | 0.030829   |   0.0 |  0.46
Modify  | 0.97554    | 0.97554    | 0.97554    |   0.0 | 14.43
Other   |            | 0.1008     |            |       |  1.49

Nlocal:            100 ave         100 max         100 min
Histogram: 1 0 0 0 0 0 0 0 0 0
Nghost:             47 ave          47 max          47 min
Histogram: 1 0 0 0 0 0 0 0 0 0
Neighs:              0 ave           0 max           0 min
Histogram: 1 0 0 0 0 0 0 0 0 0
FullNghs:          492 ave         492 max         492 min
Histogram: 1 0 0 0 0 0 0 0 0 0

Total # of neighbors = 492
Ave neighs/atom = 4.92
Neighbor list builds = 3658
Dangerous builds = 0
write_restart 	./endconf/endconf*2.restart
System init for write_restart ...

#=================Cooling Phase=====================

# Re-minimize before cooling
#min_style       sd
#minimize        1.0e-5 1.0e-7 500 1000

unfix 			4
fix 			5 all temp/berendsen ${tempchauf} 0.0 ${Tdamp}
fix 			5 all temp/berendsen 3000 0.0 ${Tdamp}
fix 			5 all temp/berendsen 3000 0.0 0.001

run 			${iter}
run 			1000000
Per MPI rank memory allocation (min/avg/max) = 5.237 | 5.237 | 5.237 Mbytes
   Step          Temp          TotEng         E_pair         PotEng         KinEng    
   1100048   3000.8899     -328.76977     -367.17142     -367.17142      38.401651    
   1101000   2991.941      -329.99764     -368.28477     -368.28477      38.287134    
   1102000   2975.1254     -328.43111     -366.50305     -366.50305      38.071949    
   1103000   3009.9983     -329.5309      -368.04911     -368.04911      38.518208    
   1104000   2999.5985     -328.59152     -366.97664     -366.97664      38.385126    
   1105000   2980.5203     -329.27731     -367.4183      -367.4183       38.140985    
   1106000   2962.9696     -329.60132     -367.51772     -367.51772      37.916394    
   1107000   2988.2252     -329.49477     -367.73435     -367.73435      38.239583    
   1108000   2966.5777     -330.54572     -368.50829     -368.50829      37.962566    
   1109000   2981.2005     -330.22145     -368.37114     -368.37114      38.149691    
   1110000   2977.5772     -329.26352     -367.36685     -367.36685      38.103324    
   1111000   2979.3741     -330.44414     -368.57046     -368.57046      38.126318    
   1112000   2934.9379     -331.06667     -368.62435     -368.62435      37.55768     
   1113000   2969.9044     -330.6952      -368.70034     -368.70034      38.005137    
   1114000   2956.3745     -331.44754     -369.27954     -369.27954      37.831999    
   1115000   2945.7554     -330.87495     -368.57106     -368.57106      37.696108    
   1116000   2950.5482     -332.05889     -369.81633     -369.81633      37.757441    
   1117000   2968.7852     -329.54615     -367.53697     -367.53697      37.990815    
   1118000   2944.7732     -331.61856     -369.3021      -369.3021       37.683539    
   1119000   2934.019      -331.33886     -368.88479     -368.88479      37.545921    
   1120000   2943.7535     -331.54669     -369.21718     -369.21718      37.670491    
   1121000   2950.7031     -332.00403     -369.76346     -369.76346      37.759423    
   1122000   2928.7969     -330.19485     -367.67395     -367.67395      37.479094    
   1123000   2920.2057     -331.89629     -369.26545     -369.26545      37.369155    
   1124000   2954.1584     -334.63479     -372.43843     -372.43843      37.80364     
   1125000   2906.718      -333.59297     -370.78952     -370.78952      37.196556    
   1126000   2897.1288     -334.36722     -371.44107     -371.44107      37.073846    
   1127000   2909.009      -334.28505     -371.51093     -371.51093      37.225873    
   1128000   2915.276      -332.9242      -370.23027     -370.23027      37.306071    
   1129000   2928.8483     -335.53812     -373.01787     -373.01787      37.479752    
   1130000   2884.5245     -334.77183     -371.68438     -371.68438      36.912552    
   1131000   2889.8365     -333.92499     -370.90551     -370.90551      36.980528    
   1132000   2890.2736     -335.47896     -372.46508     -372.46508      36.986122    
   1133000   2923.1779     -336.23751     -373.6447      -373.6447       37.40719     
   1134000   2905.8825     -334.45576     -371.64162     -371.64162      37.185865    
   1135000   2891.1952     -336.11318     -373.11109     -373.11109      36.997914    
   1136000   2907.7183     -334.59492     -371.80428     -371.80428      37.209357    
   1137000   2882.9656     -334.48197     -371.37458     -371.37458      36.892603    
   1138000   2872.4552     -335.24748     -372.00559     -372.00559      36.758104    
   1139000   2882.6043     -334.78767     -371.67565     -371.67565      36.887979    
   1140000   2882.1201     -335.59446     -372.47624     -372.47624      36.881783    
   1141000   2879.9495     -336.45938     -373.31339     -373.31339      36.854006    
   1142000   2883.6687     -336.22363     -373.12523     -373.12523      36.9016      
   1143000   2868.4017     -336.96139     -373.66762     -373.66762      36.706232    
   1144000   2857.4608     -336.76872     -373.33495     -373.33495      36.566224    
   1145000   2865.8766     -336.32865     -373.00257     -373.00257      36.673919    
   1146000   2866.1843     -335.47024     -372.14809     -372.14809      36.677856    
   1147000   2878.7928     -336.80733     -373.64654     -373.64654      36.839204    
   1148000   2861.231      -335.23423     -371.84871     -371.84871      36.614471    
   1149000   2853.4719     -338.20902     -374.72419     -374.72419      36.515178    
   1150000   2887.8304     -341.42681     -378.38167     -378.38167      36.954856    
   1151000   2875.4874     -340.283       -377.0799      -377.0799       36.796906    
   1152000   2817.8045     -341.90623     -377.96498     -377.96498      36.058751    
   1153000   2823.2727     -339.59469     -375.72342     -375.72342      36.128727    
   1154000   2820.6618     -339.89361     -375.98892     -375.98892      36.095316    
   1155000   2854.2154     -341.12319     -377.64788     -377.64788      36.524693    
   1156000   2846.4518     -342.60718     -379.03252     -379.03252      36.425345    
   1157000   2840.1057     -342.1107      -378.45483     -378.45483      36.344134    
   1158000   2822.963      -343.63974     -379.76451     -379.76451      36.124764    
   1159000   2813.8595     -343.21153     -379.2198      -379.2198       36.008269    
   1160000   2749.6629     -347.23544     -382.4222      -382.4222       35.186761    
   1161000   2813.5878     -345.64371     -381.6485      -381.6485       36.004792    
   1162000   2791.5459     -346.41516     -382.13789     -382.13789      35.722727    
   1163000   2811.5014     -348.59199     -384.57008     -384.57008      35.978093    
   1164000   2824.8752     -347.55868     -383.70792     -383.70792      36.149234    
   1165000   2849.6382     -346.28076     -382.74688     -382.74688      36.46612     
   1166000   2802.16       -345.4681      -381.32665     -381.32665      35.858553    
   1167000   2777.1362     -348.27072     -383.80905     -383.80905      35.53833     
   1168000   2852.4887     -347.62299     -384.12559     -384.12559      36.502597    
   1169000   2763.5255     -346.82318     -382.18734     -382.18734      35.364157    
   1170000   2804.692      -349.21714     -385.10809     -385.10809      35.890954    
   1171000   2808.544      -349.65387     -385.59411     -385.59411      35.940248    
   1172000   2759.3582     -345.74026     -381.05109     -381.05109      35.31083     
   1173000   2777.2395     -347.09821     -382.63786     -382.63786      35.539652    
   1174000   2751.2021     -346.74453     -381.95098     -381.95098      35.206458    
   1175000   2789.1257     -349.09055     -384.78231     -384.78231      35.691756    
   1176000   2753.9009     -349.33449     -384.57548     -384.57548      35.240993    
   1177000   2784.3558     -348.89357     -384.52428     -384.52428      35.630717    
   1178000   2747.2451     -349.17731     -384.33313     -384.33313      35.155821    
   1179000   2747.7248     -349.73696     -384.89892     -384.89892      35.161959    
   1180000   2747.4354     -348.24146     -383.39972     -383.39972      35.158256    
   1181000   2800.211      -347.49492     -383.32853     -383.32853      35.833612    
   1182000   2745.0561     -349.13747     -384.26527     -384.26527      35.127809    
   1183000   2738.1158     -349.00613     -384.04513     -384.04513      35.038996    
   1184000   2778.6074     -349.88475     -385.44191     -385.44191      35.557157    
   1185000   2749.945      -348.73359     -383.92396     -383.92396      35.19037     
   1186000   2725.012      -350.28387     -385.15518     -385.15518      34.87131     
   1187000   2717.0827     -349.33196     -384.1018      -384.1018       34.76984     
   1188000   2732.356      -350.12464     -385.08992     -385.08992      34.965288    
   1189000   2737.4713     -349.3785      -384.40925     -384.40925      35.030748    
   1190000   2727.2994     -348.17797     -383.07855     -383.07855      34.90058     
   1191000   2733.4251     -349.39003     -384.369       -384.369        34.97897     
   1192000   2730.3492     -349.82718     -384.76679     -384.76679      34.939608    
   1193000   2714.038      -348.72998     -383.46086     -383.46086      34.730877    
   1194000   2722.2968     -348.88483     -383.7214      -383.7214       34.836564    
   1195000   2731.987      -350.55235     -385.51292     -385.51292      34.960566    
   1196000   2698.0665     -351.28213     -385.80862     -385.80862      34.526494    
   1197000   2706.2025     -350.055       -384.68561     -384.68561      34.630609    
   1198000   2700.5688     -352.27574     -386.83426     -386.83426      34.558516    
   1199000   2699.0945     -351.26127     -385.80091     -385.80091      34.539649    
   1200000   2718.3609     -351.79595     -386.58214     -386.58214      34.786196    
   1201000   2711.4911     -350.95168     -385.64996     -385.64996      34.698286    
   1202000   2669.5085     -352.83026     -386.9913      -386.9913       34.161045    
   1203000   2678.4761     -353.20931     -387.48511     -387.48511      34.275801    
   1204000   2701.7443     -351.9595      -386.53306     -386.53306      34.573558    
   1205000   2716.5787     -354.26709     -389.03048     -389.03048      34.76339     
   1206000   2672.1549     -354.00482     -388.19973     -388.19973      34.19491     
   1207000   2693.8864     -355.71042     -390.18342     -390.18342      34.473002    
   1208000   2654.9444     -352.84755     -386.82222     -386.82222      33.974672    
   1209000   2681.7906     -353.43487     -387.75309     -387.75309      34.318216    
   1210000   2666.6565     -352.55386     -386.67841     -386.67841      34.124548    
   1211000   2668.1041     -353.70781     -387.85088     -387.85088      34.143073    
   1212000   2636.757      -354.89177     -388.6337      -388.6337       33.741932    
   1213000   2661.0844     -354.34224     -388.39549     -388.39549      34.053243    
   1214000   2621.1918     -358.47961     -392.02235     -392.02235      33.542748    
   1215000   2645.3127     -358.97323     -392.82464     -392.82464      33.851416    
   1216000   2635.3023     -358.93034     -392.65365     -392.65365      33.723316    
   1217000   2638.9567     -357.98664     -391.75672     -391.75672      33.77008     
   1218000   2618.1965     -359.80381     -393.30823     -393.30823      33.504418    
   1219000   2653.1924     -357.92272     -391.87497     -391.87497      33.952251    
   1220000   2619.0681     -360.39012     -393.9057      -393.9057       33.515571    
   1221000   2656.1745     -360.95418     -394.94459     -394.94459      33.990413    
   1222000   2630.6927     -361.54079     -395.20512     -395.20512      33.664328    
   1223000   2629.4842     -361.62682     -395.27569     -395.27569      33.648863    
   1224000   2627.0065     -360.3495      -393.96665     -393.96665      33.617157    
   1225000   2616.2811     -361.69662     -395.17653     -395.17653      33.479907    
   1226000   2648.4961     -361.65859     -395.55074     -395.55074      33.892154    
   1227000   2602.4124     -360.40453     -393.70696     -393.70696      33.302432    
   1228000   2613.4887     -360.68598     -394.13015     -394.13015      33.444173    
   1229000   2608.2862     -359.84124     -393.21884     -393.21884      33.377598    
   1230000   2582.6528     -360.71619     -393.76576     -393.76576      33.049573    
   1231000   2605.1569     -360.87812     -394.21567     -394.21567      33.337553    
   1232000   2632.1627     -361.3738      -395.05694     -395.05694      33.68314     
   1233000   2606.301      -362.53344     -395.88563     -395.88563      33.352194    
   1234000   2622.231      -361.73523     -395.29128     -395.29128      33.556046    
   1235000   2599.8686     -360.64645     -393.91633     -393.91633      33.26988     
   1236000   2582.0576     -361.42666     -394.46861     -394.46861      33.041957    
   1237000   2613.5531     -362.4283      -395.8733      -395.8733       33.444998    
   1238000   2591.1068     -362.53887     -395.69663     -395.69663      33.157757    
   1239000   2585.4104     -363.08598     -396.17084     -396.17084      33.084862    
   1240000   2548.8902     -362.55972     -395.17724     -395.17724      32.617522    
   1241000   2603.9142     -362.19517     -395.51682     -395.51682      33.32165     
   1242000   2574.371      -362.979       -395.92259     -395.92259      32.943594    
   1243000   2556.546      -361.8764      -394.59189     -394.59189      32.715491    
   1244000   2569.6354     -361.47668     -394.35967     -394.35967      32.882993    
   1245000   2559.8881     -362.19183     -394.95009     -394.95009      32.758259    
   1246000   2576.3654     -362.24578     -395.2149      -395.2149       32.969115    
   1247000   2546.4608     -362.15205     -394.73848     -394.73848      32.586433    
   1248000   2533.2392     -362.34467     -394.76191     -394.76191      32.41724     
   1249000   2554.8318     -363.31651     -396.01006     -396.01006      32.693555    
   1250000   2547.5612     -361.58091     -394.18142     -394.18142      32.600515    
   1251000   2486.4243     -365.56339     -397.38155     -397.38155      31.818161    
   1252000   2547.2705     -365.66965     -398.26645     -398.26645      32.596795    
   1253000   2545.5809     -364.69519     -397.27036     -397.27036      32.575174    
   1254000   2539.9584     -367.5124      -400.01562     -400.01562      32.503224    
   1255000   2552.8937     -367.27594     -399.9447      -399.9447       32.668754    
   1256000   2520.0181     -368.25435     -400.5024      -400.5024       32.248052    
   1257000   2558.3197     -369.66427     -402.40246     -402.40246      32.738189    
   1258000   2519.3948     -366.52205     -398.76212     -398.76212      32.240077    
   1259000   2524.7144     -367.40484     -399.71299     -399.71299      32.30815     
   1260000   2549.311      -368.48252     -401.10543     -401.10543      32.622906    
   1261000   2535.1389     -368.06781     -400.50936     -400.50936      32.44155     
   1262000   2513.8193     -369.11796     -401.28669     -401.28669      32.168728    
   1263000   2484.5728     -368.63929     -400.43376     -400.43376      31.794468    
   1264000   2506.2612     -368.38363     -400.45564     -400.45564      32.072009    
   1265000   2502.4783     -367.61203     -399.63563     -399.63563      32.0236      
   1266000   2516.9206     -369.54822     -401.75663     -401.75663      32.208415    
   1267000   2463.4149     -369.80355     -401.32727     -401.32727      31.523715    
   1268000   2497.9436     -369.52703     -401.4926      -401.4926       31.965571    
   1269000   2469.0638     -369.93832     -401.53432     -401.53432      31.596004    
   1270000   2472.8764     -370.24265     -401.88744     -401.88744      31.644792    
   1271000   2480.8399     -368.66212     -400.40881     -400.40881      31.746699    
   1272000   2473.0573     -370.55627     -402.20338     -402.20338      31.647107    
   1273000   2484.3465     -369.58294     -401.37451     -401.37451      31.791572    
   1274000   2466.6644     -370.34636     -401.91165     -401.91165      31.565298    
   1275000   2463.134      -369.87333     -401.39345     -401.39345      31.520121    
   1276000   2474.4204     -369.0917      -400.75625     -400.75625      31.664549    
   1277000   2471.9989     -369.17125     -400.80481     -400.80481      31.633563    
   1278000   2455.0528     -370.01193     -401.42863     -401.42863      31.416707    
   1279000   2453.3071     -370.63199     -402.02635     -402.02635      31.394368    
   1280000   2460.1292     -368.53928     -400.02095     -400.02095      31.481669    
   1281000   2466.864      -370.43528     -402.00313     -402.00313      31.567852    
   1282000   2448.0216     -370.60564     -401.93237     -401.93237      31.326731    
   1283000   2438.7127     -370.6664      -401.87401     -401.87401      31.207607    
   1284000   2440.928      -371.23452     -402.47048     -402.47048      31.235956    
   1285000   2446.1714     -371.42018     -402.72324     -402.72324      31.303055    
   1286000   2422.1382     -370.00819     -401.0037      -401.0037       30.995507    
   1287000   2424.2446     -371.21511     -402.23757     -402.23757      31.022463    
   1288000   2432.1007     -370.98199     -402.10498     -402.10498      31.122996    
   1289000   2438.8769     -372.36843     -403.57814     -403.57814      31.209708    
   1290000   2438.6019     -370.55616     -401.76235     -401.76235      31.206189    
   1291000   2444.3001     -371.47001     -402.74912     -402.74912      31.279108    
   1292000   2419.9008     -370.39964     -401.36652     -401.36652      30.966877    
   1293000   2429.697      -371.72305     -402.81529     -402.81529      31.092236    
   1294000   2428.6567     -371.25725     -402.33617     -402.33617      31.078923    
   1295000   2427.5704     -371.20197     -402.267       -402.267        31.065023    
   1296000   2407.1761     -371.55679     -402.36083     -402.36083      30.804042    
   1297000   2419.0666     -371.06064     -402.01684     -402.01684      30.956202    
   1298000   2400.2478     -370.60868     -401.32406     -401.32406      30.715382    
   1299000   2404.9613     -372.89517     -403.67087     -403.67087      30.775699    
   1300000   2386.1872     -373.36609     -403.90154     -403.90154      30.535451    
   1301000   2400.9941     -372.18579     -402.91072     -402.91072      30.724932    
   1302000   2386.7724     -372.18535     -402.72829     -402.72829      30.54294     
   1303000   2406.3279     -372.2427      -403.03589     -403.03589      30.793187    
   1304000   2387.5886     -372.13401     -402.6874      -402.6874       30.553385    
   1305000   2374.4348     -372.922       -403.30706     -403.30706      30.385059    
   1306000   2388.1691     -371.60721     -402.16803     -402.16803      30.560813    
   1307000   2397.3204     -372.57667     -403.25459     -403.25459      30.67792     
   1308000   2362.3342     -372.71937     -402.94958     -402.94958      30.23021     
   1309000   2372.5192     -371.74697     -402.10751     -402.10751      30.360546    
   1310000   2394.5064     -373.29029     -403.9322      -403.9322       30.64191     
   1311000   2373.0207     -375.92664     -406.2936      -406.2936       30.366963    
   1312000   2359.7932     -375.20061     -405.3983      -405.3983       30.197694    
   1313000   2348.1027     -375.80264     -405.85073     -405.85073      30.048093    
   1314000   2355.0138     -376.33671     -406.47324     -406.47324      30.136534    
   1315000   2348.4817     -375.23252     -405.28546     -405.28546      30.052944    
   1316000   2356.4782     -375.58225     -405.73752     -405.73752      30.155272    
   1317000   2328.4408     -376.25633     -406.05282     -406.05282      29.796485    
   1318000   2368.5984     -376.8285      -407.13887     -407.13887      30.310372    
   1319000   2335.0381     -377.74323     -407.62414     -407.62414      29.880909    
   1320000   2364.1239     -376.17955     -406.43266     -406.43266      30.253112    
   1321000   2341.4162     -375.93465     -405.89718     -405.89718      29.962528    
   1322000   2325.0313     -377.68539     -407.43825     -407.43825      29.752855    
   1323000   2347.2028     -377.14706     -407.18364     -407.18364      30.036577    
   1324000   2337.6068     -376.73218     -406.64596     -406.64596      29.913781    
   1325000   2314.1023     -376.89982     -406.51282     -406.51282      29.612999    
   1326000   2317.2061     -377.99477     -407.64749     -407.64749      29.652717    
   1327000   2318.0526     -376.44756     -406.11111     -406.11111      29.66355     
   1328000   2314.3811     -376.66954     -406.2861      -406.2861       29.616567    
   1329000   2297.0884     -376.55896     -405.95424     -405.95424      29.395275    
   1330000   2341.9316     -377.58274     -407.55186     -407.55186      29.969123    
   1331000   2299.3548     -379.54291     -408.96719     -408.96719      29.424279    
   1332000   2288.7989     -377.66125     -406.95044     -406.95044      29.289197    
   1333000   2304.286      -378.0724      -407.55979     -407.55979      29.487382    
   1334000   2289.2674     -377.91183     -407.20702     -407.20702      29.295193    
   1335000   2284.3081     -378.15351     -407.38524     -407.38524      29.23173     
   1336000   2288.6551     -378.12024     -407.4076      -407.4076       29.287357    
   1337000   2270.7667     -377.87591     -406.93436     -406.93436      29.058443    
   1338000   2267.2761     -378.36084     -407.37462     -407.37462      29.013775    
   1339000   2279.5362     -376.42075     -405.59141     -405.59141      29.170664    
   1340000   2272.8276     -377.37179     -406.4566      -406.4566       29.084817    
   1341000   2267.881      -377.5482      -406.56972     -406.56972      29.021517    
   1342000   2266.0746     -378.97522     -407.97362     -407.97362      28.9984      
   1343000   2272.3542     -378.53815     -407.61691     -407.61691      29.078759    
   1344000   2273.1871     -378.25236     -407.34178     -407.34178      29.089417    
   1345000   2278.4837     -381.26202     -410.41922     -410.41922      29.157196    
   1346000   2269.3944     -381.95651     -410.99739     -410.99739      29.040882    
   1347000   2239.6319     -380.26797     -408.92799     -408.92799      28.660019    
   1348000   2227.3251     -382.73982     -411.24236     -411.24236      28.502532    
   1349000   2263.1198     -383.03577     -411.99636     -411.99636      28.960588    
   1350000   2202.1419     -382.52426     -410.70453     -410.70453      28.180269    
   1351000   2265.2112     -383.89805     -412.8854      -412.8854       28.987352    
   1352000   2249.1715     -383.47396     -412.25605     -412.25605      28.782095    
   1353000   2219.8379     -382.71862     -411.12534     -411.12534      28.40672     
   1354000   2243.1447     -381.88811     -410.59308     -410.59308      28.704972    
   1355000   2239.8732     -381.96956     -410.63267     -410.63267      28.663107    
   1356000   2224.227      -381.91982     -410.38271     -410.38271      28.462886    
   1357000   2250.5333     -383.41714     -412.21666     -412.21666      28.799522    
   1358000   2224.4871     -381.61876     -410.08497     -410.08497      28.466215    
   1359000   2250.9922     -384.19663     -413.00203     -413.00203      28.805394    
   1360000   2218.6453     -382.70377     -411.09523     -411.09523      28.391459    
   1361000   2198.7063     -383.18375     -411.32005     -411.32005      28.136304    
   1362000   2202.5883     -383.47766     -411.66364     -411.66364      28.185981    
   1363000   2216.6005     -384.73833     -413.10362     -413.10362      28.365293    
   1364000   2231.9032     -383.55676     -412.11788     -412.11788      28.561118    
   1365000   2209.0744     -383.66421     -411.9332      -411.9332       28.268983    
   1366000   2201.1193     -382.5369      -410.70409     -410.70409      28.167183    
   1367000   2185.3017     -383.89728     -411.86205     -411.86205      27.964769    
   1368000   2212.7678     -382.39448     -410.71073     -410.71073      28.316246    
   1369000   2177.5882     -384.15832     -412.02439     -412.02439      27.866061    
   1370000   2178.6525     -383.53113     -411.41081     -411.41081      27.879681    
   1371000   2184.3413     -383.81242     -411.7649      -411.7649       27.952479    
   1372000   2177.9214     -384.91457     -412.78489     -412.78489      27.870325    
   1373000   2209.7976     -384.47704     -412.75527     -412.75527      28.278237    
   1374000   2174.672      -385.42895     -413.25769     -413.25769      27.828744    
   1375000   2184.837      -383.97984     -411.93866     -411.93866      27.958822    
   1376000   2173.4599     -384.2435      -412.05673     -412.05673      27.813233    
   1377000   2173.0707     -384.32132     -412.12957     -412.12957      27.808251    
   1378000   2162.5064     -385.07569     -412.74875     -412.74875      27.673064    
   1379000   2170.6679     -385.85446     -413.63196     -413.63196      27.777504    
   1380000   2139.7725     -385.33609     -412.71823     -412.71823      27.382143    
   1381000   2163.8848     -385.56973     -413.26044     -413.26044      27.690703    
   1382000   2152.9183     -388.17391     -415.72427     -415.72427      27.550367    
   1383000   2109.9408     -388.36443     -415.36482     -415.36482      27.000394    
   1384000   2144.3188     -388.68434     -416.12466     -416.12466      27.440321    
   1385000   2137.5108     -387.31091     -414.66411     -414.66411      27.353201    
   1386000   2159.7262     -389.0613      -416.69879     -416.69879      27.637486    
   1387000   2182.1948     -389.39585     -417.32086     -417.32086      27.925011    
   1388000   2150.2026     -389.55624     -417.07185     -417.07185      27.515615    
   1389000   2165.0094     -390.50251     -418.2076      -418.2076       27.705093    
   1390000   2119.6948     -391.19264     -418.31785     -418.31785      27.125214    
   1391000   2142.0621     -390.68623     -418.09768     -418.09768      27.411443    
   1392000   2131.548      -391.84493     -419.12182     -419.12182      27.276896    
   1393000   2122.0753     -391.19246     -418.34814     -418.34814      27.155676    
   1394000   2136.0425     -389.80792     -417.14233     -417.14233      27.334411    
   1395000   2125.8771     -388.99945     -416.20377     -416.20377      27.204327    
   1396000   2092.6276     -389.31468     -416.09352     -416.09352      26.778841    
   1397000   2101.1638     -389.86636     -416.75444     -416.75444      26.888077    
   1398000   2093.706      -391.93364     -418.72629     -418.72629      26.792641    
   1399000   2136.8448     -390.0406      -417.38528     -417.38528      27.344678    
   1400000   2110.8675     -391.36587     -418.37812     -418.37812      27.012253    
   1401000   2100.0831     -392.40126     -419.27551     -419.27551      26.874248    
   1402000   2106.4465     -391.15028     -418.10595     -418.10595      26.955679    
   1403000   2106.2396     -390.58302     -417.53605     -417.53605      26.953031    
   1404000   2110.863      -391.42683     -418.43903     -418.43903      27.012195    
   1405000   2105.8467     -390.88683     -417.83484     -417.83484      26.948003    
   1406000   2053.9957     -392.22407     -418.50855     -418.50855      26.284478    
   1407000   2082.0394     -390.5608      -417.20415     -417.20415      26.643347    
   1408000   1970.7886     -394.51744     -419.73713     -419.73713      25.219697    
   1409000   2049.1397     -395.57177     -421.79411     -421.79411      26.222337    
   1410000   2043.22       -395.36082     -421.50741     -421.50741      26.146584    
   1411000   2081.3342     -395.61568     -422.25        -422.25         26.634322    
   1412000   2049.3441     -396.31001     -422.53497     -422.53497      26.224953    
   1413000   2052.4639     -395.60557     -421.87045     -421.87045      26.264877    
   1414000   2054.5343     -394.91087     -421.20224     -421.20224      26.29137     
   1415000   2051.5287     -396.27093     -422.52384     -422.52384      26.252908    
   1416000   2060.8117     -397.27391     -423.64561     -423.64561      26.371701    
   1417000   2034.5377     -397.70716     -423.74264     -423.74264      26.035479    
   1418000   2033.1795     -398.48822     -424.50632     -424.50632      26.018098    
   1419000   2065.8312     -397.20607     -423.642       -423.642        26.435934    
   1420000   2067.1832     -396.07422     -422.52746     -422.52746      26.453236    
   1421000   2046.0593     -397.916       -424.09892     -424.09892      26.182919    
   1422000   2031.623      -397.29973     -423.29791     -423.29791      25.99818     
   1423000   2026.6756     -397.17348     -423.10835     -423.10835      25.93487     
   1424000   2037.744      -397.71641     -423.79292     -423.79292      26.07651     
   1425000   2039.6652     -397.1665      -423.2676      -423.2676       26.101094    
   1426000   2027.5013     -398.95421     -424.89964     -424.89964      25.945437    
   1427000   2027.5126     -397.74729     -423.69287     -423.69287      25.94558     
   1428000   2020.7796     -397.62466     -423.48408     -423.48408      25.85942     
   1429000   2020.3325     -397.36085     -423.21455     -423.21455      25.853699    
   1430000   2008.3849     -398.2987      -423.99951     -423.99951      25.700809    
   1431000   2063.1159     -403.55885     -429.96003     -429.96003      26.401187    
   1432000   2025.8691     -401.35258     -427.27713     -427.27713      25.92455     
   1433000   1998.4373     -401.2286      -426.80211     -426.80211      25.573511    
   1434000   1965.6612     -402.64119     -427.79527     -427.79527      25.154084    
   1435000   2010.1857     -405.20142     -430.92528     -430.92528      25.723852    
   1436000   1967.638      -402.57815     -427.75753     -427.75753      25.17938     
   1437000   1986.555      -401.85341     -427.27486     -427.27486      25.421456    
   1438000   1988.9605     -404.29424     -429.74648     -429.74648      25.452238    
   1439000   1993.5828     -403.82962     -429.34101     -429.34101      25.51139     
   1440000   1985.6744     -403.36666     -428.77685     -428.77685      25.410188    
   1441000   1981.3972     -401.79519     -427.15065     -427.15065      25.355453    
   1442000   2000.9849     -402.32352     -427.92963     -427.92963      25.606112    
   1443000   1949.6576     -404.17167     -429.12096     -429.12096      24.94929     
   1444000   1953.824      -402.2043      -427.20691     -427.20691      25.002606    
   1445000   1983.0639     -403.03204     -428.40882     -428.40882      25.376782    
   1446000   1955.6979     -403.82842     -428.85501     -428.85501      25.026585    
   1447000   1971.3643     -402.67215     -427.89922     -427.89922      25.227065    
   1448000   2050.3162     -403.55804     -429.79543     -429.79543      26.237392    
   1449000   1975.8267     -405.26672     -430.55089     -430.55089      25.284169    
   1450000   1935.1392     -406.36979     -431.1333      -431.1333       24.763501    
   1451000   1956.2899     -408.7546      -433.78876     -433.78876      25.034161    
   1452000   1937.6093     -405.69117     -430.48628     -430.48628      24.79511     
   1453000   1900.0129     -406.69083     -431.00483     -431.00483      24.313999    
   1454000   1886.8871     -406.26245     -430.40848     -430.40848      24.14603     
   1455000   1922.7752     -407.57755     -432.18284     -432.18284      24.605282    
   1456000   1924.1696     -408.08869     -432.71182     -432.71182      24.623125    
   1457000   1948.2231     -407.63365     -432.56458     -432.56458      24.930932    
   1458000   1922.2621     -407.76112     -432.35984     -432.35984      24.598715    
   1459000   1914.4013     -408.9718      -433.46992     -433.46992      24.498124    
   1460000   1918.4198     -409.38819     -433.93774     -433.93774      24.549547    
   1461000   1901.0926     -408.38506     -432.71288     -432.71288      24.327815    
   1462000   1926.2498     -407.56621     -432.21595     -432.21595      24.649745    
   1463000   1906.4888     -408.452       -432.84887     -432.84887      24.396869    
   1464000   1885.446      -408.83919     -432.96678     -432.96678      24.127589    
   1465000   1920.1234     -408.66138     -433.23273     -433.23273      24.571347    
   1466000   1900.4498     -409.97765     -434.29724     -434.29724      24.319589    
   1467000   1902.2717     -410.16528     -434.50819     -434.50819      24.342904    
   1468000   1913.5957     -409.47364     -433.96146     -433.96146      24.487814    
   1469000   1893.8314     -408.7223      -432.9572      -432.9572       24.234896    
   1470000   1896.5629     -409.15937     -433.42922     -433.42922      24.26985     
   1471000   1896.5764     -410.05308     -434.3231      -434.3231       24.270023    
   1472000   1859.7614     -408.69167     -432.49058     -432.49058      23.79891     
   1473000   1892.9702     -409.03986     -433.26373     -433.26373      24.223875    
   1474000   1888.7069     -410.16991     -434.33922     -434.33922      24.169318    
   1475000   1904.2614     -409.91036     -434.27873     -434.27873      24.368365    
   1476000   1854.3071     -409.50978     -433.23889     -433.23889      23.729113    
   1477000   1862.1445     -411.31211     -435.14152     -435.14152      23.829406    
   1478000   1840.8192     -410.62622     -434.18273     -434.18273      23.556511    
   1479000   1848.5958     -410.68845     -434.34448     -434.34448      23.656026    
   1480000   1867.1382     -411.49367     -435.38698     -435.38698      23.893309    
   1481000   1836.0039     -410.09912     -433.59401     -433.59401      23.494891    
   1482000   1845.4935     -410.85523     -434.47156     -434.47156      23.616327    
   1483000   1850.091      -411.11605     -434.79121     -434.79121      23.675161    
   1484000   1838.2556     -410.71881     -434.24252     -434.24252      23.523706    
   1485000   1835.1273     -411.45192     -434.93559     -434.93559      23.483673    
   1486000   1836.0445     -410.48276     -433.97817     -433.97817      23.495411    
   1487000   1841.2713     -410.68065     -434.24294     -434.24294      23.562297    
   1488000   1829.7702     -410.34683     -433.76195     -433.76195      23.41512     
   1489000   1843.0134     -411.32143     -434.90602     -434.90602      23.58459     
   1490000   1829.542      -411.21857     -434.63077     -434.63077      23.412199    
   1491000   1821.5357     -410.15046     -433.4602      -433.4602       23.309745    
   1492000   1814.5075     -411.77815     -434.99796     -434.99796      23.219807    
   1493000   1850.849      -413.12644     -436.8113      -436.8113       23.68486     
   1494000   1832.1394     -415.0636      -438.50904     -438.50904      23.445437    
   1495000   1809.2738     -415.36333     -438.51616     -438.51616      23.152832    
   1496000   1783.1479     -413.76155     -436.58006     -436.58006      22.818506    
   1497000   1801.2127     -417.72762     -440.77729     -440.77729      23.049676    
   1498000   1809.7219     -415.57687     -438.73543     -438.73543      23.158567    
   1499000   1809.0962     -414.64124     -437.7918      -437.7918       23.15056     
   1500000   1817.127      -418.15449     -441.40782     -441.40782      23.253328    
   1501000   1798.1265     -416.13835     -439.14853     -439.14853      23.010183    
   1502000   1785.1516     -415.95636     -438.8005      -438.8005       22.844147    
   1503000   1801.3836     -415.98037     -439.03224     -439.03224      23.051863    
   1504000   1802.1116     -417.78862     -440.84979     -440.84979      23.06118     
   1505000   1788.8295     -417.50586     -440.39707     -440.39707      22.891212    
   1506000   1806.1944     -417.08014     -440.19356     -440.19356      23.113426    
   1507000   1766.8133     -417.68337     -440.29285     -440.29285      22.609476    
   1508000   1778.684      -414.2198      -436.98118     -436.98118      22.761382    
   1509000   1788.6283     -417.53189     -440.42053     -440.42053      22.888637    
   1510000   1782.6627     -418.23274     -441.04503     -441.04503      22.812297    
   1511000   1751.1694     -417.44398     -439.85327     -439.85327      22.409284    
   1512000   1777.5289     -417.88365     -440.63025     -440.63025      22.746601    
   1513000   1772.5816     -417.91178     -440.59507     -440.59507      22.683291    
   1514000   1781.768      -418.99125     -441.7921      -441.7921       22.800848    
   1515000   1774.9028     -419.11819     -441.83118     -441.83118      22.712995    
   1516000   1776.8087     -417.77859     -440.51597     -440.51597      22.737384    
   1517000   1750.716      -418.03584     -440.43932     -440.43932      22.403482    
   1518000   1734.0424     -417.80294     -439.99306     -439.99306      22.190114    
   1519000   1756.4669     -418.04449     -440.52157     -440.52157      22.477075    
   1520000   1747.9456     -418.75588     -441.12391     -441.12391      22.368031    
   1521000   1729.1551     -419.0663      -441.19387     -441.19387      22.127573    
   1522000   1741.6463     -418.80411     -441.09153     -441.09153      22.287419    
   1523000   1736.697      -418.88262     -441.10671     -441.10671      22.224085    
   1524000   1742.5392     -418.59963     -440.89848     -440.89848      22.298846    
   1525000   1730.8075     -419.83464     -441.98336     -441.98336      22.148718    
   1526000   1730.6132     -419.20083     -441.34706     -441.34706      22.146232    
   1527000   1723.5286     -420.52786     -442.58344     -442.58344      22.055572    
   1528000   1707.0022     -422.17431     -444.01839     -444.01839      21.844088    
   1529000   1704.9967     -424.952       -446.77043     -446.77043      21.818423    
   1530000   1693.5447     -423.6678      -445.33967     -445.33967      21.671875    
   1531000   1719.3128     -425.18608     -447.18771     -447.18771      22.001624    
   1532000   1692.918      -423.39268     -445.05653     -445.05653      21.663856    
   1533000   1696.5165     -423.11249     -444.82239     -444.82239      21.709905    
   1534000   1695.89       -423.88862     -445.59051     -445.59051      21.701887    
   1535000   1696.7932     -424.68935     -446.4028      -446.4028       21.713446    
   1536000   1677.5357     -424.35519     -445.82221     -445.82221      21.467012    
   1537000   1682.5712     -424.11562     -445.64707     -445.64707      21.531451    
   1538000   1708.0797     -423.77206     -445.62993     -445.62993      21.857877    
   1539000   1645.8143     -425.11147     -446.17256     -446.17256      21.061082    
   1540000   1634.9405     -424.04069     -444.96263     -444.96263      20.921932    
   1541000   1668.7204     -426.66467     -448.01888     -448.01888      21.354206    
   1542000   1681.5065     -424.8377      -446.35553     -446.35553      21.517826    
   1543000   1684.2195     -424.05086     -445.6034      -445.6034       21.552543    
   1544000   1651.954      -425.81865     -446.9583      -446.9583       21.139649    
   1545000   1677.3779     -424.86315     -446.32814     -446.32814      21.464993    
   1546000   1655.1878     -425.72022     -446.90126     -446.90126      21.181031    
   1547000   1657.9733     -426.2972      -447.51388     -447.51388      21.216677    
   1548000   1656.1712     -426.75681     -447.95042     -447.95042      21.193616    
   1549000   1645.5355     -425.50342     -446.56094     -446.56094      21.057513    
   1550000   1647.7224     -425.45125     -446.53675     -446.53675      21.085499    
   1551000   1635.4148     -426.64659     -447.57459     -447.57459      20.928002    
   1552000   1637.425      -426.33755     -447.29128     -447.29128      20.953726    
   1553000   1637.5511     -427.29274     -448.24808     -448.24808      20.955339    
   1554000   1658.2588     -427.91388     -449.13421     -449.13421      21.22033     
   1555000   1615.6275     -426.78538     -447.46017     -447.46017      20.674788    
   1556000   1629.865      -426.58267     -447.43965     -447.43965      20.856982    
   1557000   1611.0049     -427.24446     -447.8601      -447.8601       20.615634    
   1558000   1622.7689     -427.48928     -448.25546     -448.25546      20.766175    
   1559000   1629.7301     -426.69097     -447.54622     -447.54622      20.855255    
   1560000   1609.3271     -427.37881     -447.97297     -447.97297      20.594163    
   1561000   1613.6894     -426.88555     -447.53554     -447.53554      20.649987    
   1562000   1605.6223     -427.42433     -447.97108     -447.97108      20.546755    
   1563000   1617.2395     -428.14931     -448.84473     -448.84473      20.695416    
   1564000   1614.7966     -428.27685     -448.94101     -448.94101      20.664155    
   1565000   1619.4212     -427.71561     -448.43894     -448.43894      20.723335    
   1566000   1623.6646     -427.46629     -448.24393     -448.24393      20.777637    
   1567000   1602.1531     -428.23755     -448.73991     -448.73991      20.502359    
   1568000   1593.0352     -428.86915     -449.25483     -449.25483      20.385681    
   1569000   1584.651      -427.3598      -447.63819     -447.63819      20.278389    
   1570000   1602.7782     -428.30134     -448.8117      -448.8117       20.510359    
   1571000   1578.2626     -427.97282     -448.16946     -448.16946      20.196638    
   1572000   1575.4532     -428.62959     -448.79028     -448.79028      20.160688    
   1573000   1588.3834     -428.69448     -449.02064     -449.02064      20.326153    
   1574000   1579.3419     -428.42698     -448.63743     -448.63743      20.210451    
   1575000   1583.8362     -428.47183     -448.7398      -448.7398       20.267962    
   1576000   1563.5228     -428.52675     -448.53477     -448.53477      20.008018    
   1577000   1557.7747     -428.12161     -448.05607     -448.05607      19.93446     
   1578000   1559.4466     -428.6949      -448.65076     -448.65076      19.955856    
   1579000   1563.9603     -428.07948     -448.09309     -448.09309      20.013616    
   1580000   1554.7551     -429.31186     -449.20768     -449.20768      19.895819    
   1581000   1557.4207     -429.20652     -449.13645     -449.13645      19.929931    
   1582000   1543.8924     -429.86837     -449.62518     -449.62518      19.756811    
   1583000   1553.0301     -429.8745      -449.74825     -449.74825      19.873745    
   1584000   1543.6494     -429.61188     -449.36559     -449.36559      19.753702    
   1585000   1541.3492     -430.55676     -450.28102     -450.28102      19.724267    
   1586000   1531.9641     -430.15054     -449.75471     -449.75471      19.604168    
   1587000   1543.5631     -433.12888     -452.88148     -452.88148      19.752598    
   1588000   1484.6311     -434.32972     -453.32818     -453.32818      18.99846     
   1589000   1550.9109     -433.09381     -452.94044     -452.94044      19.846626    
   1590000   1484.894      -434.41529     -453.41711     -453.41711      19.001824    
   1591000   1538.0262     -435.93942     -455.62117     -455.62117      19.681743    
   1592000   1525.7775     -435.16737     -454.69237     -454.69237      19.525       
   1593000   1500.1738     -436.33103     -455.52839     -455.52839      19.197355    
   1594000   1528.0589     -435.51028     -455.06447     -455.06447      19.554195    
   1595000   1514.617      -438.69436     -458.07654     -458.07654      19.382181    
   1596000   1505.5305     -437.65876     -456.92466     -456.92466      19.265904    
   1597000   1509.668      -438.87634     -458.19519     -458.19519      19.318851    
   1598000   1501.8514     -439.52075     -458.73957     -458.73957      19.218823    
   1599000   1524.9413     -441.42853     -460.94283     -460.94283      19.514299    
   1600000   1477.5459     -440.0445      -458.95229     -458.95229      18.907792    
   1601000   1491.0444     -439.49392     -458.57445     -458.57445      19.080529    
   1602000   1512.1133     -438.6267      -457.97684     -457.97684      19.350143    
   1603000   1454.345      -439.50983     -458.12072     -458.12072      18.610895    
   1604000   1495.7975     -440.21003     -459.35139     -459.35139      19.141353    
   1605000   1495.5014     -439.91609     -459.05366     -459.05366      19.137564    
   1606000   1482.726      -439.80391     -458.77799     -458.77799      18.974081    
   1607000   1477.5853     -442.47745     -461.38574     -461.38574      18.908297    
   1608000   1479.8024     -441.16112     -460.09778     -460.09778      18.936668    
   1609000   1467.4714     -440.74134     -459.52021     -459.52021      18.77887     
   1610000   1458.733      -441.36834     -460.03539     -460.03539      18.667048    
   1611000   1454.4274     -440.69746     -459.30941     -459.30941      18.61195     
   1612000   1469.4463     -440.9802      -459.78434     -459.78434      18.804144    
   1613000   1468.6517     -442.96926     -461.76323     -461.76323      18.793974    
   1614000   1463.1938     -441.36372     -460.08785     -460.08785      18.724131    
   1615000   1458.4302     -441.28442     -459.94759     -459.94759      18.663173    
   1616000   1433.8846     -440.07703     -458.4261      -458.4261       18.349069    
   1617000   1450.7543     -442.53816     -461.10311     -461.10311      18.564946    
   1618000   1459.3602     -441.91397     -460.58905     -460.58905      18.675074    
   1619000   1453.6759     -441.64376     -460.24609     -460.24609      18.602334    
   1620000   1428.7349     -441.74687     -460.03004     -460.03004      18.283169    
   1621000   1435.3322     -442.19038     -460.55798     -460.55798      18.367594    
   1622000   1432.0049     -443.4752      -461.80022     -461.80022      18.325015    
   1623000   1434.0316     -443.07649     -461.42744     -461.42744      18.35095     
   1624000   1435.2378     -442.85337     -461.21976     -461.21976      18.366386    
   1625000   1411.8513     -442.33521     -460.40233     -460.40233      18.067115    
   1626000   1403.2147     -441.85241     -459.809       -459.809        17.956593    
   1627000   1424.5151     -443.00343     -461.2326      -461.2326       18.22917     
   1628000   1415.1054     -442.36216     -460.47091     -460.47091      18.108756    
   1629000   1398.0817     -442.37719     -460.2681      -460.2681       17.890908    
   1630000   1413.4561     -443.3007      -461.38835     -461.38835      18.08765     
   1631000   1403.1353     -442.32183     -460.27741     -460.27741      17.955577    
   1632000   1404.8447     -443.35108     -461.32853     -461.32853      17.977452    
   1633000   1395.453      -443.10147     -460.95874     -460.95874      17.85727     
   1634000   1389.8249     -444.2383      -462.02354     -462.02354      17.785248    
   1635000   1401.9683     -443.16313     -461.10377     -461.10377      17.940644    
   1636000   1387.9932     -443.39131     -461.15312     -461.15312      17.761807    
   1637000   1375.5268     -443.04679     -460.64907     -460.64907      17.602278    
   1638000   1380.1498     -443.60022     -461.26166     -461.26166      17.661437    
   1639000   1388.125      -443.09354     -460.85703     -460.85703      17.763495    
   1640000   1390.16       -442.92152     -460.71106     -460.71106      17.789535    
   1641000   1386.5069     -443.42476     -461.16755     -461.16755      17.742788    
   1642000   1361.0742     -444.43647     -461.85381     -461.85381      17.417332    
   1643000   1368.5246     -444.4585      -461.97117     -461.97117      17.512673    
   1644000   1378.5542     -445.13067     -462.77168     -462.77168      17.641019    
   1645000   1360.7013     -444.22174     -461.6343      -461.6343       17.412561    
   1646000   1357.2242     -444.37561     -461.74367     -461.74367      17.368065    
   1647000   1356.7601     -444.64288     -462.005       -462.005        17.362126    
   1648000   1367.8123     -443.9548      -461.45836     -461.45836      17.503558    
   1649000   1371.9624     -445.59112     -463.14778     -463.14778      17.556666    
   1650000   1344.0682     -444.94464     -462.14435     -462.14435      17.19971     
   1651000   1338.266      -443.78947     -460.91493     -460.91493      17.125461    
   1652000   1347.6064     -444.01853     -461.26352     -461.26352      17.244988    
   1653000   1354.6641     -444.74026     -462.07556     -462.07556      17.335304    
   1654000   1341.7393     -444.54319     -461.7131      -461.7131       17.169908    
   1655000   1329.1465     -445.34209     -462.35085     -462.35085      17.008761    
   1656000   1342.708      -444.63377     -461.81607     -461.81607      17.182304    
   1657000   1311.2223     -445.0639      -461.84329     -461.84329      16.779389    
   1658000   1324.9505     -445.21392     -462.16899     -462.16899      16.955067    
   1659000   1329.6036     -445.01771     -462.03232     -462.03232      17.01461     
   1660000   1311.8611     -445.75612     -462.54368     -462.54368      16.787565    
   1661000   1316.6288     -445.31431     -462.16289     -462.16289      16.848576    
   1662000   1315.6453     -445.39867     -462.23466     -462.23466      16.83599     
   1663000   1325.7893     -446.12159     -463.08739     -463.08739      16.9658      
   1664000   1310.7227     -444.83564     -461.60864     -461.60864      16.772996    
   1665000   1306.0384     -446.22643     -462.93949     -462.93949      16.713052    
   1666000   1297.2163     -447.05093     -463.65109     -463.65109      16.600159    
   1667000   1295.0313     -445.82987     -462.40207     -462.40207      16.572198    
   1668000   1292.1116     -446.24739     -462.78223     -462.78223      16.534835    
   1669000   1300.9516     -446.19184     -462.8398      -462.8398       16.647958    
   1670000   1287.3098     -446.33437     -462.80775     -462.80775      16.473387    
   1671000   1299.312      -446.95823     -463.5852      -463.5852       16.626977    
   1672000   1285.7694     -446.19611     -462.64978     -462.64978      16.453675    
   1673000   1286.0052     -446.76426     -463.22095     -463.22095      16.456693    
   1674000   1268.5905     -446.65784     -462.89168     -462.89168      16.233841    
   1675000   1254.9164     -447.38218     -463.44104     -463.44104      16.058857    
   1676000   1285.4451     -446.92767     -463.3772      -463.3772       16.449525    
   1677000   1263.5834     -446.71028     -462.88005     -462.88005      16.169766    
   1678000   1263.5513     -447.88813     -464.05749     -464.05749      16.169355    
   1679000   1267.0395     -446.78826     -463.00226     -463.00226      16.213993    
   1680000   1265.5337     -447.15605     -463.35078     -463.35078      16.194724    
   1681000   1264.1503     -446.98092     -463.15795     -463.15795      16.177021    
   1682000   1263.8341     -447.27115     -463.44412     -463.44412      16.172974    
   1683000   1256.1667     -447.95002     -464.02487     -464.02487      16.074857    
   1684000   1237.0427     -447.13813     -462.96826     -462.96826      15.830132    
   1685000   1250.8765     -446.75899     -462.76615     -462.76615      16.007159    
   1686000   1251.3057     -447.34817     -463.36082     -463.36082      16.012651    
   1687000   1241.3464     -447.90071     -463.78591     -463.78591      15.885205    
   1688000   1240.1883     -447.30331     -463.17369     -463.17369      15.870385    
   1689000   1223.3715     -447.86205     -463.51723     -463.51723      15.655184    
   1690000   1221.0086     -447.87065     -463.4956      -463.4956       15.624947    
   1691000   1228.863      -447.79348     -463.51894     -463.51894      15.725458    
   1692000   1225.2741     -448.40428     -464.08381     -464.08381      15.679532    
   1693000   1222.1209     -447.51066     -463.14984     -463.14984      15.63918     
   1694000   1212.8779     -448.14106     -463.66196     -463.66196      15.520901    
   1695000   1206.4196     -447.95637     -463.39463     -463.39463      15.438256    
   1696000   1213.5545     -448.16888     -463.69843     -463.69843      15.529558    
   1697000   1206.0736     -448.30585     -463.73968     -463.73968      15.433828    
   1698000   1209.1026     -448.21434     -463.68693     -463.68693      15.472589    
   1699000   1202.584      -447.88184     -463.27101     -463.27101      15.389172    
   1700000   1210.6631     -448.49884     -463.9914      -463.9914       15.492558    
   1701000   1189.3426     -448.76641     -463.98614     -463.98614      15.219725    
   1702000   1191.3863     -448.29237     -463.53824     -463.53824      15.245878    
   1703000   1196.8711     -448.70139     -464.01745     -464.01745      15.316066    
   1704000   1189.5896     -449.05943     -464.28231     -464.28231      15.222885    
   1705000   1186.8661     -448.83028     -464.01831     -464.01831      15.188034    
   1706000   1185.2987     -449.18342     -464.3514      -464.3514       15.167976    
   1707000   1190.6194     -448.71789     -463.95396     -463.95396      15.236064    
   1708000   1184.5722     -448.86053     -464.01921     -464.01921      15.158679    
   1709000   1177.3316     -448.26508     -463.33111     -463.33111      15.066023    
   1710000   1166.981      -449.61878     -464.55235     -464.55235      14.93357     
   1711000   1162.0489     -449.43783     -464.30828     -464.30828      14.870455    
   1712000   1163.847      -449.30503     -464.19849     -464.19849      14.893465    
   1713000   1157.3238     -448.68995     -463.49994     -463.49994      14.809988    
   1714000   1155.9385     -449.28001     -464.07227     -464.07227      14.792261    
   1715000   1163.3782     -449.37841     -464.26588     -464.26588      14.887465    
   1716000   1152.1115     -448.71354     -463.45683     -463.45683      14.743288    
   1717000   1151.0607     -449.59935     -464.32919     -464.32919      14.72984     
   1718000   1157.1567     -449.14566     -463.95351     -463.95351      14.807851    
   1719000   1150.6215     -449.51677     -464.24099     -464.24099      14.724221    
   1720000   1150.1709     -449.81188     -464.53033     -464.53033      14.718454    
   1721000   1141.8998     -450.31832     -464.93093     -464.93093      14.612612    
   1722000   1136.4854     -449.80449     -464.34782     -464.34782      14.543324    
   1723000   1136.8709     -449.9979      -464.54616     -464.54616      14.548258    
   1724000   1140.3635     -449.76236     -464.35531     -464.35531      14.592952    
   1725000   1135.1256     -449.8462      -464.37212     -464.37212      14.525923    
   1726000   1128.3054     -450.16359     -464.60223     -464.60223      14.438648    
   1727000   1105.9035     -450.49673     -464.64871     -464.64871      14.151975    
   1728000   1112.0531     -450.22501     -464.45568     -464.45568      14.230671    
   1729000   1103.1928     -450.58641     -464.7037      -464.7037       14.117287    
   1730000   1106.3251     -450.15259     -464.30997     -464.30997      14.157371    
   1731000   1098.3424     -450.63185     -464.68707     -464.68707      14.055217    
   1732000   1107.9124     -450.12208     -464.29976     -464.29976      14.177683    
   1733000   1107.846      -450.92757     -465.1044      -465.1044       14.176833    
   1734000   1104.5227     -450.04525     -464.17956     -464.17956      14.134306    
   1735000   1098.7379     -450.35423     -464.41451     -464.41451      14.06028     
   1736000   1091.2895     -450.63551     -464.60047     -464.60047      13.964964    
   1737000   1090.2691     -451.06464     -465.01655     -465.01655      13.951906    
   1738000   1087.0394     -450.463       -464.37357     -464.37357      13.910577    
   1739000   1080.4483     -451.05312     -464.87935     -464.87935      13.826231    
   1740000   1077.2522     -450.95129     -464.73662     -464.73662      13.785332    
   1741000   1078.0873     -450.84739     -464.64341     -464.64341      13.796018    
   1742000   1064.5837     -450.53758     -464.16079     -464.16079      13.623216    
   1743000   1079.5344     -451.65083     -465.46537     -465.46537      13.814536    
   1744000   1066.4897     -451.08301     -464.73061     -464.73061      13.647606    
   1745000   1065.7016     -450.90244     -464.53996     -464.53996      13.637522    
   1746000   1056.1315     -451.20294     -464.71799     -464.71799      13.515055    
   1747000   1053.0322     -451.93358     -465.40898     -465.40898      13.475395    
   1748000   1064.8775     -451.23728     -464.86426     -464.86426      13.626976    
   1749000   1050.196      -452.07113     -465.51023     -465.51023      13.4391      
   1750000   1090.8128     -456.91203     -470.87089     -470.87089      13.958863    
   1751000   1045.2726     -457.63663     -471.01273     -471.01273      13.376097    
   1752000   1055.3822     -456.11881     -469.62428     -469.62428      13.505467    
   1753000   1057.345      -457.47106     -471.00165     -471.00165      13.530584    
   1754000   1038.1934     -457.17614     -470.46165     -470.46165      13.285506    
   1755000   1046.1764     -457.71614     -471.10381     -471.10381      13.387663    
   1756000   1032.8225     -457.94873     -471.16551     -471.16551      13.216776    
   1757000   1026.8639     -457.46568     -470.6062      -470.6062       13.140525    
   1758000   1016.8743     -457.56767     -470.58036     -470.58036      13.012691    
   1759000   1021.5879     -457.57542     -470.64842     -470.64842      13.073009    
   1760000   1012.7136     -457.58654     -470.54599     -470.54599      12.959447    
   1761000   1026.9709     -457.98911     -471.13101     -471.13101      13.141895    
   1762000   1008.8087     -458.77419     -471.68367     -471.68367      12.909478    
   1763000   1001.3654     -457.77039     -470.58462     -470.58462      12.814228    
   1764000   1004.3465     -458.2599      -471.11228     -471.11228      12.852376    
   1765000   1010.7555     -457.87002     -470.80441     -470.80441      12.934389    
   1766000   1006.8611     -458.03932     -470.92387     -470.92387      12.884554    
   1767000   991.82536     -458.61698     -471.30913     -471.30913      12.692146    
   1768000   995.41572     -458.32331     -471.0614      -471.0614       12.73809     
   1769000   988.01198     -458.73312     -471.37647     -471.37647      12.643347    
   1770000   991.94892     -458.81118     -471.50491     -471.50491      12.693727    
   1771000   984.32104     -458.50711     -471.10322     -471.10322      12.596115    
   1772000   978.98499     -458.3357      -470.86353     -470.86353      12.52783     
   1773000   989.4289      -462.45663     -475.11811     -475.11811      12.661479    
   1774000   975.41244     -463.0122      -475.49431     -475.49431      12.482113    
   1775000   957.71341     -462.88009     -475.13571     -475.13571      12.255623    
   1776000   977.93816     -463.2448      -475.75923     -475.75923      12.514434    
   1777000   944.78126     -462.67602     -474.76615     -474.76615      12.090134    
   1778000   968.91263     -462.93415     -475.33308     -475.33308      12.398937    
   1779000   959.71678     -463.781       -476.06226     -476.06226      12.28126     
   1780000   957.17846     -463.47475     -475.72353     -475.72353      12.248778    
   1781000   960.59488     -464.32675     -476.61924     -476.61924      12.292497    
   1782000   952.95303     -464.48417     -476.67888     -476.67888      12.194706    
   1783000   952.54149     -464.13786     -476.3273      -476.3273       12.189439    
   1784000   951.67147     -464.34146     -476.51977     -476.51977      12.178306    
   1785000   941.90953     -463.77273     -475.82612     -475.82612      12.053385    
   1786000   945.75871     -464.98837     -477.09101     -477.09101      12.102642    
   1787000   940.62483     -464.6777      -476.71465     -476.71465      12.036945    
   1788000   943.65913     -464.48805     -476.56382     -476.56382      12.075774    
   1789000   924.88683     -465.01061     -476.84616     -476.84616      11.83555     
   1790000   919.53677     -464.18341     -475.9505      -475.9505       11.767086    
   1791000   920.02433     -464.01052     -475.78384     -475.78384      11.773325    
   1792000   928.92655     -465.07157     -476.95882     -476.95882      11.887245    
   1793000   925.46671     -464.66364     -476.50661     -476.50661      11.84297     
   1794000   922.31204     -465.34051     -477.14311     -477.14311      11.802601    
   1795000   919.57442     -466.0945      -477.86207     -477.86207      11.767568    
   1796000   900.13427     -465.20145     -476.72025     -476.72025      11.518797    
   1797000   908.27479     -464.91476     -476.53773     -476.53773      11.622969    
   1798000   905.93812     -465.57147     -477.16453     -477.16453      11.593068    
   1799000   900.07105     -465.41117     -476.92916     -476.92916      11.517988    
   1800000   906.62682     -465.16688     -476.76876     -476.76876      11.601881    
   1801000   898.81054     -465.80448     -477.30634     -477.30634      11.501858    
   1802000   898.70572     -465.14816     -476.64868     -476.64868      11.500516    
   1803000   888.67086     -465.45928     -476.83138     -476.83138      11.372103    
   1804000   884.5521      -465.53027     -476.84966     -476.84966      11.319396    
   1805000   879.34987     -465.48995     -476.74277     -476.74277      11.252824    
   1806000   885.50692     -465.6509      -476.98251     -476.98251      11.331615    
   1807000   878.91251     -466.41786     -477.66508     -477.66508      11.247227    
   1808000   879.57026     -465.70111     -476.95676     -476.95676      11.255645    
   1809000   868.89815     -465.96066     -477.07973     -477.07973      11.119076    
   1810000   876.76957     -466.05304     -477.27284     -477.27284      11.219805    
   1811000   875.2038      -466.10366     -477.30343     -477.30343      11.199768    
   1812000   859.93024     -466.44197     -477.44629     -477.44629      11.004316    
   1813000   863.52259     -466.08873     -477.13901     -477.13901      11.050286    
   1814000   857.83904     -465.61956     -476.59712     -476.59712      10.977556    
   1815000   856.94541     -466.00346     -476.96958     -476.96958      10.96612     
   1816000   859.4367      -466.78989     -477.78789     -477.78789      10.998       
   1817000   857.49461     -466.11373     -477.08688     -477.08688      10.973148    
   1818000   852.99111     -466.76835     -477.68386     -477.68386      10.915518    
   1819000   838.61958     -466.54206     -477.27367     -477.27367      10.731609    
   1820000   849.99004     -466.5639      -477.44102     -477.44102      10.877114    
   1821000   846.48733     -467.14207     -477.97436     -477.97436      10.83229     
   1822000   832.25899     -466.59584     -477.24606     -477.24606      10.650214    
   1823000   829.9765      -466.69441     -477.31542     -477.31542      10.621005    
   1824000   819.69315     -467.00866     -477.49807     -477.49807      10.489412    
   1825000   828.79269     -466.85771     -477.46356     -477.46356      10.605857    
   1826000   816.29955     -466.98657     -477.43256     -477.43256      10.445985    
   1827000   812.16223     -467.16604     -477.55908     -477.55908      10.39304     
   1828000   812.9251      -467.24034     -477.64315     -477.64315      10.402803    
   1829000   813.62032     -467.13216     -477.54386     -477.54386      10.411699    
   1830000   821.92395     -467.80147     -478.31943     -478.31943      10.517959    
   1831000   817.52985     -467.10234     -477.56406     -477.56406      10.461729    
   1832000   802.63474     -467.54581     -477.81693     -477.81693      10.27112     
   1833000   803.66213     -467.27876     -477.56303     -477.56303      10.284267    
   1834000   799.30461     -467.83051     -478.05902     -478.05902      10.228505    
   1835000   798.64505     -467.47966     -477.69972     -477.69972      10.220064    
   1836000   791.72788     -467.63134     -477.76289     -477.76289      10.131547    
   1837000   794.20761     -467.52198     -477.68526     -477.68526      10.16328     
   1838000   790.00434     -467.87808     -477.98757     -477.98757      10.109491    
   1839000   783.29787     -467.81723     -477.8409      -477.8409       10.02367     
   1840000   776.40563     -467.9641      -477.89957     -477.89957      9.9354721    
   1841000   777.04486     -467.98107     -477.92472     -477.92472      9.9436521    
   1842000   772.72295     -467.85168     -477.74003     -477.74003      9.8883458    
   1843000   778.50372     -468.03803     -478.00035     -478.00035      9.9623209    
   1844000   760.47097     -468.05632     -477.78789     -477.78789      9.7315602    
   1845000   758.08996     -468.46041     -478.1615      -478.1615       9.701091     
   1846000   759.73841     -468.3536      -478.07578     -478.07578      9.7221858    
   1847000   753.23793     -468.31379     -477.95279     -477.95279      9.6390008    
   1848000   750.94598     -468.80922     -478.41889     -478.41889      9.6096713    
   1849000   754.67571     -468.87343     -478.53083     -478.53083      9.6573997    
   1850000   755.42262     -468.59684     -478.2638      -478.2638       9.6669576    
   1851000   751.82885     -468.43108     -478.05205     -478.05205      9.6209691    
   1852000   750.37993     -468.89922     -478.50165     -478.50165      9.6024276    
   1853000   741.10083     -468.81004     -478.29372     -478.29372      9.4836852    
   1854000   738.36106     -468.56998     -478.0186      -478.0186       9.4486251    
   1855000   738.26916     -468.83942     -478.28687     -478.28687      9.447449     
   1856000   724.16484     -469.12695     -478.39391     -478.39391      9.2669596    
   1857000   721.01691     -468.70877     -477.93544     -477.93544      9.2266763    
   1858000   726.9494      -468.71834     -478.02094     -478.02094      9.3025929    
   1859000   725.34308     -469.2203      -478.50234     -478.50234      9.2820372    
   1860000   720.3719      -468.96913     -478.18755     -478.18755      9.2184222    
   1861000   717.34812     -469.18657     -478.3663      -478.3663       9.1797277    
   1862000   710.39617     -469.14087     -478.23163     -478.23163      9.0907652    
   1863000   711.80348     -469.38041     -478.48919     -478.48919      9.1087743    
   1864000   702.5089      -469.65119     -478.64102     -478.64102      8.9898339    
   1865000   709.44114     -469.19534     -478.27388     -478.27388      9.078544     
   1866000   701.83936     -469.48303     -478.4643      -478.4643       8.9812659    
   1867000   699.95512     -469.58676     -478.54392     -478.54392      8.9571537    
   1868000   702.90984     -469.56952     -478.56449     -478.56449      8.9949645    
   1869000   696.47518     -469.74533     -478.65796     -478.65796      8.9126218    
   1870000   685.22448     -469.94639     -478.71504     -478.71504      8.7686494    
   1871000   688.63436     -469.57288     -478.38516     -478.38516      8.8122848    
   1872000   680.26725     -469.78264     -478.48785     -478.48785      8.7052129    
   1873000   679.22586     -469.70373     -478.39562     -478.39562      8.6918864    
   1874000   683.03933     -469.94981     -478.6905      -478.6905       8.7406866    
   1875000   672.57762     -470.08722     -478.69403     -478.69403      8.6068106    
   1876000   670.60931     -469.97614     -478.55777     -478.55777      8.5816227    
   1877000   667.54638     -469.88996     -478.43238     -478.43238      8.542427     
   1878000   670.0417      -470.6211      -479.19546     -479.19546      8.5743591    
   1879000   666.19167     -470.73315     -479.25824     -479.25824      8.5250912    
   1880000   658.63336     -470.03678     -478.46515     -478.46515      8.4283693    
   1881000   658.07357     -470.25883     -478.68003     -478.68003      8.4212058    
   1882000   655.20745     -470.31584     -478.70037     -478.70037      8.3845288    
   1883000   649.4345      -470.54947     -478.86012     -478.86012      8.3106538    
   1884000   645.31023     -470.41706     -478.67494     -478.67494      8.2578765    
   1885000   641.42182     -470.78389     -478.99201     -478.99201      8.2081175    
   1886000   640.06243     -470.68186     -478.87258     -478.87258      8.1907217    
   1887000   638.25412     -470.32643     -478.49401     -478.49401      8.1675812    
   1888000   633.67364     -470.78012     -478.88909     -478.88909      8.108966     
   1889000   632.03065     -470.71595     -478.80389     -478.80389      8.087941     
   1890000   626.21609     -470.33939     -478.35293     -478.35293      8.0135335    
   1891000   628.91272     -470.74867     -478.79671     -478.79671      8.0480416    
   1892000   622.63411     -470.7545      -478.72219     -478.72219      7.9676957    
   1893000   619.97648     -470.91148     -478.84517     -478.84517      7.9336867    
   1894000   617.22144     -471.05908     -478.95751     -478.95751      7.8984311    
   1895000   613.82235     -470.94323     -478.79817     -478.79817      7.8549338    
   1896000   610.38288     -471.43827     -479.24919     -479.24919      7.8109198    
   1897000   611.15509     -471.0132      -478.834       -478.834        7.8208016    
   1898000   612.08255     -471.21714     -479.04981     -479.04981      7.83267      
   1899000   599.15759     -471.10984     -478.77712     -478.77712      7.6672725    
   1900000   596.45494     -471.42011     -479.0528      -479.0528       7.6326873    
   1901000   599.31809     -471.31672     -478.98605     -478.98605      7.6693264    
   1902000   589.6511      -471.36983     -478.91545     -478.91545      7.5456203    
   1903000   591.12265     -471.48198     -479.04643     -479.04643      7.5644514    
   1904000   589.4805      -471.56819     -479.11163     -479.11163      7.5434372    
   1905000   583.56815     -471.72777     -479.19555     -479.19555      7.4677782    
   1906000   584.38861     -471.75016     -479.22843     -479.22843      7.4782775    
   1907000   577.87912     -471.66847     -479.06345     -479.06345      7.3949771    
   1908000   577.3022      -471.74449     -479.13209     -479.13209      7.3875944    
   1909000   573.89982     -471.69607     -479.04012     -479.04012      7.3440551    
   1910000   573.16243     -471.91007     -479.24469     -479.24469      7.3346188    
   1911000   564.48456     -471.96421     -479.18778     -479.18778      7.2235702    
   1912000   565.63252     -472.10363     -479.34189     -479.34189      7.2382604    
   1913000   564.61584     -471.77964     -479.00489     -479.00489      7.2252502    
   1914000   556.45125     -471.943       -479.06377     -479.06377      7.12077      
   1915000   549.82055     -471.92498     -478.9609      -478.9609       7.0359186    
   1916000   551.8734      -472.51355     -479.57574     -479.57574      7.0621884    
   1917000   548.08924     -472.23857     -479.25234     -479.25234      7.0137633    
   1918000   545.19202     -472.26603     -479.24272     -479.24272      6.9766883    
   1919000   547.02343     -472.3243      -479.32443     -479.32443      7.0001244    
   1920000   542.81311     -472.32738     -479.27363     -479.27363      6.946246     
   1921000   537.73203     -472.51465     -479.39588     -479.39588      6.8812247    
   1922000   529.92858     -472.87557     -479.65693     -479.65693      6.7813659    
   1923000   533.80478     -472.68304     -479.51401     -479.51401      6.8309686    
   1924000   531.25844     -472.50359     -479.30197     -479.30197      6.7983838    
   1925000   525.75482     -472.81971     -479.54766     -479.54766      6.7279553    
   1926000   522.04211     -472.88655     -479.56699     -479.56699      6.6804446    
   1927000   518.45784     -472.92967     -479.56425     -479.56425      6.6345776    
   1928000   515.88008     -472.97261     -479.5742      -479.5742       6.6015907    
   1929000   511.4222      -472.88181     -479.42636     -479.42636      6.5445443    
   1930000   510.88086     -473.03819     -479.5758      -479.5758       6.5376169    
   1931000   508.00845     -473.05013     -479.55099     -479.55099      6.5008593    
   1932000   504.94192     -473.00025     -479.46186     -479.46186      6.4616177    
   1933000   503.7591      -473.11779     -479.56427     -479.56427      6.4464815    
   1934000   499.12885     -473.16025     -479.54747     -479.54747      6.3872293    
   1935000   495.63388     -473.45477     -479.79728     -479.79728      6.342505     
   1936000   492.0092      -473.11525     -479.41137     -479.41137      6.2961208    
   1937000   494.21214     -473.41356     -479.73787     -479.73787      6.3243114    
   1938000   488.2572      -473.43818     -479.68628     -479.68628      6.2481074    
   1939000   483.32564     -473.4524      -479.6374      -479.6374       6.1849995    
   1940000   480.5275      -473.52098     -479.67017     -479.67017      6.1491924    
   1941000   470.41436     -473.52957     -479.54935     -479.54935      6.019777     
   1942000   476.91071     -473.66386     -479.76677     -479.76677      6.1029092    
   1943000   472.01775     -473.69014     -479.73043     -479.73043      6.0402952    
   1944000   467.87375     -473.5815      -479.56876     -479.56876      5.9872655    
   1945000   469.63235     -473.81252     -479.82229     -479.82229      6.0097698    
   1946000   463.24304     -473.78054     -479.70854     -479.70854      5.9280074    
   1947000   458.20919     -473.80161     -479.6652      -479.6652       5.8635905    
   1948000   454.21514     -473.8649      -479.67738     -479.67738      5.8124796    
   1949000   451.51395     -474.10717     -479.88509     -479.88509      5.7779131    
   1950000   450.42741     -474.13878     -479.90279     -479.90279      5.7640089    
   1951000   444.40288     -474.08113     -479.76805     -479.76805      5.6869145    
   1952000   440.83042     -474.14175     -479.78295     -479.78295      5.6411986    
   1953000   438.61741     -474.13694     -479.74981     -479.74981      5.6128792    
   1954000   437.82932     -474.2256      -479.82839     -479.82839      5.6027943    
   1955000   439.67885     -474.29967     -479.92613     -479.92613      5.6264622    
   1956000   430.04144     -474.31984     -479.82297     -479.82297      5.5031346    
   1957000   428.61401     -474.31047     -479.79534     -479.79534      5.4848683    
   1958000   425.55135     -474.6077      -480.05337     -480.05337      5.4456761    
   1959000   422.91553     -474.39385     -479.8058      -479.8058       5.4119462    
   1960000   419.49631     -474.65811     -480.0263      -480.0263       5.3681912    
   1961000   414.26782     -474.84332     -480.1446      -480.1446       5.3012836    
   1962000   412.15555     -474.49189     -479.76614     -479.76614      5.2742533    
   1963000   412.23823     -474.58631     -479.86162     -479.86162      5.2753113    
   1964000   409.24581     -474.72209     -479.95911     -479.95911      5.2370181    
   1965000   406.60196     -474.86438     -480.06757     -480.06757      5.2031854    
   1966000   401.22465     -474.74913     -479.8835      -479.8835       5.1343733    
   1967000   396.32993     -474.86932     -479.94105     -479.94105      5.0717368    
   1968000   396.71517     -474.91457     -479.99124     -479.99124      5.0766665    
   1969000   393.79243     -474.94337     -479.98263     -479.98263      5.039265     
   1970000   390.96242     -475.00499     -480.00804     -480.00804      5.0030501    
   1971000   385.23596     -475.11732     -480.04709     -480.04709      4.9297699    
   1972000   384.78757     -475.10227     -480.0263      -480.0263       4.9240321    
   1973000   380.58697     -475.13866     -480.00894     -480.00894      4.870278     
   1974000   379.25161     -475.23087     -480.08406     -480.08406      4.8531897    
   1975000   376.77993     -475.23777     -480.05933     -480.05933      4.8215602    
   1976000   372.02539     -475.33284     -480.09355     -480.09355      4.7607175    
   1977000   369.34559     -475.38304     -480.10946     -480.10946      4.7264248    
   1978000   366.05119     -475.35781     -480.04208     -480.04208      4.6842671    
   1979000   361.68057     -475.52171     -480.15005     -480.15005      4.6283374    
   1980000   358.30349     -475.52808     -480.1132      -480.1132       4.5851217    
   1981000   355.60065     -475.6541      -480.20463     -480.20463      4.5505341    
   1982000   354.46107     -475.59414     -480.13009     -480.13009      4.5359513    
   1983000   351.17641     -475.70665     -480.20056     -480.20056      4.4939183    
   1984000   349.77216     -475.82188     -480.29782     -480.29782      4.4759485    
   1985000   344.41486     -475.66888     -480.07627     -480.07627      4.4073924    
   1986000   342.21714     -475.81407     -480.19333     -480.19333      4.3792687    
   1987000   340.99217     -475.87234     -480.23593     -480.23593      4.3635931    
   1988000   337.21854     -475.95006     -480.26537     -480.26537      4.3153028    
   1989000   334.2685      -475.94775     -480.2253      -480.2253       4.2775519    
   1990000   330.46976     -476.00015     -480.22909     -480.22909      4.2289404    
   1991000   326.96121     -476.04756     -480.2316      -480.2316       4.1840423    
   1992000   324.24687     -476.01168     -480.16099     -480.16099      4.1493076    
   1993000   322.83882     -476.15922     -480.29051     -480.29051      4.1312891    
   1994000   319.34335     -476.13216     -480.21872     -480.21872      4.0865584    
   1995000   316.76198     -476.1908      -480.24433     -480.24433      4.0535252    
   1996000   312.69192     -476.35655     -480.35799     -480.35799      4.0014417    
   1997000   310.5648      -476.39785     -480.37207     -480.37207      3.9742214    
   1998000   306.58364     -476.37809     -480.30137     -480.30137      3.9232755    
   1999000   305.21808     -476.36017     -480.26597     -480.26597      3.9058007    
   2000000   300.22572     -476.51877     -480.36068     -480.36068      3.8419148    
   2001000   298.18874     -476.51918     -480.33503     -480.33503      3.815848     
   2002000   296.23741     -476.65837     -480.44925     -480.44925      3.7908774    
   2003000   292.31807     -476.58779     -480.32851     -480.32851      3.7407225    
   2004000   290.08763     -476.61647     -480.32865     -480.32865      3.7121802    
   2005000   284.20326     -476.70588     -480.34276     -480.34276      3.6368793    
   2006000   283.15852     -476.74015     -480.36366     -480.36366      3.62351      
   2007000   279.10429     -476.84876     -480.42039     -480.42039      3.571629     
   2008000   275.46138     -476.88634     -480.41135     -480.41135      3.5250116    
   2009000   272.58001     -476.80041     -480.28855     -480.28855      3.4881395    
   2010000   269.9334      -477.00435     -480.45862     -480.45862      3.4542714    
   2011000   267.29444     -477.06394     -480.48444     -480.48444      3.4205013    
   2012000   264.73661     -476.99546     -480.38323     -480.38323      3.3877693    
   2013000   260.64679     -477.04397     -480.3794      -480.3794       3.3354329    
   2014000   258.49913     -477.13333     -480.44128     -480.44128      3.3079498    
   2015000   255.73195     -477.15185     -480.42439     -480.42439      3.2725389    
   2016000   251.99789     -477.34282     -480.56757     -480.56757      3.2247551    
   2017000   249.71916     -477.35681     -480.5524      -480.5524       3.1955947    
   2018000   246.09309     -477.35088     -480.50007     -480.50007      3.1491928    
   2019000   242.90819     -477.39241     -480.50085     -480.50085      3.1084364    
   2020000   239.95915     -477.4055      -480.4762      -480.4762       3.0706983    
   2021000   237.72993     -477.42498     -480.46715     -480.46715      3.0421715    
   2022000   233.74994     -477.53907     -480.53031     -480.53031      2.9912405    
   2023000   228.42398     -477.66937     -480.59245     -480.59245      2.9230856    
   2024000   227.30798     -477.64844     -480.55724     -480.55724      2.9088044    
   2025000   225.0439      -477.61043     -480.49026     -480.49026      2.8798315    
   2026000   222.59054     -477.74338     -480.59182     -480.59182      2.8484364    
   2027000   219.25787     -477.73462     -480.54041     -480.54041      2.8057891    
   2028000   216.85666     -477.97681     -480.75187     -480.75187      2.7750615    
   2029000   213.16953     -477.87321     -480.60108     -480.60108      2.7278781    
   2030000   210.82013     -477.82049     -480.5183      -480.5183       2.6978134    
   2031000   207.25734     -477.99135     -480.64357     -480.64357      2.6522213    
   2032000   204.6778      -477.99206     -480.61127     -480.61127      2.6192116    
   2033000   201.18031     -478.14166     -480.71611     -480.71611      2.574455     
   2034000   198.62245     -478.06969     -480.61141     -480.61141      2.5417227    
   2035000   196.34586     -478.22747     -480.74006     -480.74006      2.5125897    
   2036000   191.70839     -478.19839     -480.65164     -480.65164      2.4532451    
   2037000   187.53946     -478.29946     -480.69936     -480.69936      2.3998964    
   2038000   186.66572     -478.32365     -480.71236     -480.71236      2.3887153    
   2039000   182.29105     -478.33003     -480.66276     -480.66276      2.3327337    
   2040000   180.18183     -478.39723     -480.70297     -480.70297      2.3057427    
   2041000   177.24491     -478.47639     -480.74455     -480.74455      2.2681596    
   2042000   174.43863     -478.51545     -480.74769     -480.74769      2.2322483    
   2043000   171.64423     -478.48902     -480.6855      -480.6855       2.196489     
   2044000   169.17775     -478.55516     -480.72009     -480.72009      2.1649262    
   2045000   166.38081     -478.62685     -480.75598     -480.75598      2.1291343    
   2046000   162.10571     -478.64379     -480.71822     -480.71822      2.074427     
   2047000   158.4108      -478.76505     -480.7922      -480.7922       2.0271441    
   2048000   154.77202     -478.82549     -480.80607     -480.80607      1.9805795    
   2049000   152.85291     -478.812       -480.76802     -480.76802      1.9560211    
   2050000   149.81907     -478.91203     -480.82923     -480.82923      1.9171979    
   2051000   146.15152     -478.88253     -480.75279     -480.75279      1.8702651    
   2052000   144.76262     -478.9873      -480.83979     -480.83979      1.8524917    
   2053000   141.28117     -479.011       -480.81894     -480.81894      1.8079405    
   2054000   138.66417     -479.11264     -480.88709     -480.88709      1.7744513    
   2055000   129.09113     -483.31147     -484.96342     -484.96342      1.6519474    
   2056000   142.0469      -487.85367     -489.67141     -489.67141      1.8177393    
   2057000   136.99684     -488.60812     -490.36123     -490.36123      1.7531149    
   2058000   130.63721     -489.15413     -490.82587     -490.82587      1.6717323    
   2059000   120.05813     -490.0005      -491.53685     -491.53685      1.5363544    
   2060000   119.75846     -489.48303     -491.01555     -491.01555      1.5325196    
   2061000   117.29593     -489.47651     -490.97752     -490.97752      1.5010072    
   2062000   113.47871     -488.84369     -490.29585     -490.29585      1.4521592    
   2063000   108.82754     -489.43651     -490.82915     -490.82915      1.3926392    
   2064000   110.17994     -489.86809     -491.27804     -491.27804      1.4099456    
   2065000   104.88277     -489.98708     -491.32924     -491.32924      1.3421591    
   2066000   102.81687     -489.496       -490.81173     -490.81173      1.3157223    
   2067000   94.6166       -489.55604     -490.76682     -490.76682      1.2107854    
   2068000   96.190786     -489.84164     -491.07257     -491.07257      1.2309299    
   2069000   91.887828     -490.14006     -491.31593     -491.31593      1.175866     
   2070000   90.932787     -490.41717     -491.58082     -491.58082      1.1636445    
   2071000   85.937486     -490.32459     -491.42431     -491.42431      1.0997209    
   2072000   82.317396     -490.0135      -491.06689     -491.06689      1.0533955    
   2073000   81.433623     -490.45817     -491.50025     -491.50025      1.0420861    
   2074000   74.425369     -495.32968     -496.28209     -496.28209      0.95240317   
   2075000   73.739652     -495.76447     -496.7081      -496.7081       0.94362821   
   2076000   73.769313     -496.28298     -497.22699     -497.22699      0.94400778   
   2077000   68.620833     -496.31743     -497.19555     -497.19555      0.87812394   
   2078000   63.159365     -496.24802     -497.05625     -497.05625      0.80823488   
   2079000   66.072731     -496.17389     -497.0194      -497.0194       0.84551651   
   2080000   62.520998     -496.33893     -497.13899     -497.13899      0.80006585   
   2081000   57.333226     -496.41065     -497.14433     -497.14433      0.73367921   
   2082000   54.242697     -496.59072     -497.28485     -497.28485      0.69413047   
   2083000   49.951504     -496.65824     -497.29745     -497.29745      0.63921712   
   2084000   49.727798     -496.68429     -497.32064     -497.32064      0.63635442   
   2085000   45.66771      -496.66946     -497.25386     -497.25386      0.58439847   
   2086000   41.795598     -496.6049      -497.13975     -497.13975      0.534848     
   2087000   40.836015     -496.70488     -497.22745     -497.22745      0.52256846   
   2088000   35.044656     -496.95002     -497.39848     -497.39848      0.44845786   
   2089000   33.454964     -497.05696     -497.48507     -497.48507      0.42811496   
   2090000   30.543769     -497.19929     -497.59015     -497.59015      0.3908611    
   2091000   26.201293     -497.31208     -497.64737     -497.64737      0.33529151   
   2092000   24.288429     -497.32979     -497.64061     -497.64061      0.31081306   
   2093000   20.989005     -497.4692      -497.73779     -497.73779      0.26859114   
   2094000   17.781147     -497.53798     -497.76552     -497.76552      0.22754097   
   2095000   15.437936     -497.60974     -497.80729     -497.80729      0.19755547   
   2096000   12.300905     -497.67371     -497.83112     -497.83112      0.15741166   
   2097000   8.948482      -497.7188      -497.83331     -497.83331      0.11451153   
   2098000   6.3430243     -497.8014      -497.88257     -497.88257      0.081170123  
   2099000   3.2657743     -497.85973     -497.90152     -497.90152      0.041791312  
   2100000   0.19938042    -497.93547     -497.93802     -497.93802      0.0025514223 
   2100048   0.04298807    -497.93884     -497.93939     -497.93939      0.00055010778
Loop time of 97.9894 on 1 procs for 1000000 steps with 100 atoms

Performance: 88.173 ns/day, 0.272 hours/ns, 10205.183 timesteps/s, 1.021 Matom-step/s
99.4% CPU use with 1 MPI tasks x 1 OpenMP threads

MPI task timing breakdown:
Section |  min time  |  avg time  |  max time  |%varavg| %total
---------------------------------------------------------------
Pair    | 82.749     | 82.749     | 82.749     |   0.0 | 84.45
Neigh   | 2.6575     | 2.6575     | 2.6575     |   0.0 |  2.71
Comm    | 0.94482    | 0.94482    | 0.94482    |   0.0 |  0.96
Output  | 0.32459    | 0.32459    | 0.32459    |   0.0 |  0.33
Modify  | 10.245     | 10.245     | 10.245     |   0.0 | 10.45
Other   |            | 1.069      |            |       |  1.09

Nlocal:            100 ave         100 max         100 min
Histogram: 1 0 0 0 0 0 0 0 0 0
Nghost:             66 ave          66 max          66 min
Histogram: 1 0 0 0 0 0 0 0 0 0
Neighs:              0 ave           0 max           0 min
Histogram: 1 0 0 0 0 0 0 0 0 0
FullNghs:          968 ave         968 max         968 min
Histogram: 1 0 0 0 0 0 0 0 0 0

Total # of neighbors = 968
Ave neighs/atom = 9.68
Neighbor list builds = 23909
Dangerous builds = 0
write_restart 	./endconf/endconf*3.restart
System init for write_restart ...

Total wall time: 0:02:23
