# REAX potential for CHO system
# .....

units		real
atom_style	charge

#read_data	./data.CHO

############### Create initial box and atoms #############################
dimension 3 
region boite block 0 100 0 100 0 100
boundary p p p 
create_box   3 boite
create_atoms 2 random 400 123456 NULL
mass 1 1.0080
mass 2 12.0107
mass 3 15.9994

pair_style lj/cut 2.0
pair_coeff * * 0.07 5.55

velocity all create 300.0 1592015 rot yes dist gaussian

fix              1 all nve/limit 0.01 
fix              2 all temp/berendsen 300.0 300.0 1.0

compute  2       all cluster/atom 1.5

timestep	0.1

#thermo_style multi
#thermo_style custom step  temp etotal v_etotalSI epair ebond pe ke
thermo_style custom step temp pe press density

thermo 30000

dump		1 all atom 30000 dump.file

run		500000


# Pour éviter un effet mémoire sur les paires dans VMD : refaire une simulation à nvt
#reset_timestep 0 

#unfix 1
#fix             1 all nvt temp 300.0 300.0 10.0

#dump		1 all atom 30000 dump.file
#dump 		2 all cfg 30000 ./dump/dump.tensile_*.cfg mass type xs ys zs mass q c_2

#restart 250000 ./restart/cinit.restart


#run		500000

write_data resu.CHO








